@relation 'Dataset-weka.filters.unsupervised.attribute.Remove-R1-3-weka.filters.unsupervised.attribute.ReplaceMissingValues-weka.filters.unsupervised.attribute.Normalize-S1.0-T0.0-weka.filters.supervised.attribute.AttributeSelection-Eweka.attributeSelection.InfoGainAttributeEval-Sweka.attributeSelection.Ranker -T -1.7976931348623157E308 -N 5-weka.filters.unsupervised.attribute.NominalToBinary-Rfirst-last'

@attribute avgChurn numeric
@attribute stmtAdded numeric
@attribute CyclomaticComplexity numeric
@attribute CodeSmells numeric
@attribute maxChurn numeric
@attribute IsBuggy {no,yes}

@data
0.005887,0.002067,0.03125,0,0.003408,no
0.006507,0.003373,0,0,0.006507,no
0.011929,0.007073,0.125,0,0.006507,no
0.005422,0.0037,0.03125,0,0.005422,no
0.005422,0.0037,0.03125,0,0.005422,no
0,0,0,0,0,no
0,0,0,0,0,no
0.003408,0.002394,0,0,0.003408,no
0.003408,0.002394,0,0,0.003408,no
0.001859,0.002503,0,0,0.003408,no
0.001162,0.001632,0.03125,0,0.001704,no
0.001749,0.007182,0.3125,0.666667,0.004493,no
0.002375,0.004897,0.03125,0,0.004493,no
0.003369,0.007726,0.03125,0,0.008366,no
0.008572,0.026442,0.375,0.666667,0.013478,no
0.009966,0.014146,0.03125,0,0.013478,no
0.003253,0.002067,0,0,0.003253,no
0.001394,0.002394,0.09375,0.333333,0.003253,no
0.002479,0.001415,0.03125,0,0.001859,no
0.001859,0.001197,0.0625,0,0.001859,no
0.006197,0.008487,0.15625,0.333333,0.011154,no
0.005732,0.007943,0.15625,0.333333,0.011154,no
0.004287,0.008705,0.15625,0.333333,0.011154,yes
0.00062,0.000218,0.03125,0,0.00062,no
0.001549,0.000871,0.0625,0,0.001549,no
0.001549,0.000871,0,0,0.001549,no
0.001084,0.001088,0.125,0.333333,0.00093,yes
0.004338,0.003047,0.09375,0.333333,0.002169,no
0.002169,0.001523,0,0,0.002169,no
0.002169,0.001523,0,0.333333,0.002169,no
0.006816,0.003482,0,0,0.006816,no
0.006816,0.003482,0,0,0.006816,no
0.006816,0.003482,0,0,0.006816,no
0.006971,0.003591,0.0625,0.333333,0.006816,no
0.001549,0.001088,0.09375,0.333333,0.000775,no
0.000775,0.000544,0,0,0.000775,no
0,0,0,0,0,no
0,0,0,0,0,no
0.003292,0.007835,0.3125,0.666667,0.006042,no
0,0,0,0,0,no
0,0,0.03125,0,0,no
0.00031,0.000218,0.0625,0,0.00031,no
0,0,0.03125,0,0,yes
0,0,0.03125,0,0,no
0,0,0,0,0,no
0,0,0.03125,0,0,no
0,0,0,0,0,yes
0,0,0.03125,0,0,yes
0.00031,0.000109,0.03125,0.333333,0.00031,yes
0,0,0,0,0,no
0,0,0.03125,0,0,no
0.00062,0.000218,0.03125,0,0.00062,yes
0.00031,0.000109,0,0,0.00031,no
0.000775,0.000653,0.09375,0,0.00093,yes
0.00062,0.000218,0,0,0.00062,no
0.00093,0.000326,0,0,0.00093,no
0.00062,0.000544,0.125,0,0.00031,yes
0.00031,0.000109,0,0,0.00031,no
0,0,0,0,0,no
0.00093,0.000653,0,0,0.00093,no
0.000852,0.000653,0,0,0.001239,no
0.001239,0.000871,0,0,0.001239,no
0.00093,0.000326,0.125,0.333333,0.00031,no
0,0,0,0,0,no
0,0,0,0,0,no
0,0,0.0625,0,0,no
0.000542,0.000544,0.375,0.666667,0.000465,no
0.001549,0.000653,0.03125,0.333333,0.00062,no
0,0,0,0,0,no
0.004957,0.005332,0.09375,0.333333,0.008985,no
0.004648,0.005114,0.03125,0,0.008985,no
0.008985,0.005005,0.03125,0,0.008985,no
0.00816,0.006855,0.15625,0.333333,0.013633,no
0.000852,0.001088,0.03125,0,0.001394,no
0.00031,0.000109,0.03125,0,0.00031,no
0,0,0.125,0.333333,0,yes
0.00031,0.000109,0,0,0.00031,no
0,0,0.03125,0,0,no
0,0,0.03125,0,0,no
0.00062,0.000435,0.1875,0.333333,0.00031,no
0.00031,0.000109,0.0625,0.333333,0.00031,no
0.00062,0.000218,0.03125,0,0.00031,no
0,0,0,0,0,no
0.004725,0.003591,0.28125,0.333333,0.005112,no
0.00031,0.000109,0.03125,0,0.00031,no
0.000775,0.000544,0.03125,0,0.000775,no
0.007591,0.005332,0.03125,0,0.007591,no
0.00284,0.005658,0.09375,0,0.007591,no
0,0,0.03125,0,0,yes
0.00062,0.000435,0,0,0.00062,no
0.00062,0.000326,0.0625,0,0.00031,yes
0,0,0.03125,0,0,yes
0,0,0.09375,0,0,yes
0,0,0,0,0,no
0,0,0.0625,0,0,yes
0,0,0,0,0,no
0.001394,0.002176,0.03125,0,0.002479,no
0.002479,0.001088,0,0,0.002479,no
0.002014,0.000544,0,0,0.002014,no
0.00062,0.000218,0.03125,0,0.00062,no
0.00031,0.000109,0.03125,0,0.00031,no
0,0,0.0625,0,0,no
0.000465,0.000326,0.0625,0,0.00031,no
0.000465,0.000326,0.0625,0.333333,0.00031,no
0.00031,0.000109,0,0,0.00031,no
0,0,0.0625,0,0,no
0,0,0,0,0,no
0.00031,0.000218,0.21875,0.333333,0.00031,no
0,0,0.09375,0,0,yes
0.000852,0.000653,0.5,0.666667,0.00062,yes
0,0,0,0,0,no
0.000465,0.000326,0.21875,0.666667,0.00062,no
0.00062,0.000435,0.25,0.333333,0.00062,yes
0.00031,0.000218,0.09375,0.333333,0.00031,no
0.00031,0.000218,0.09375,0.333333,0.00031,no
0.00062,0.000218,0.03125,0.333333,0.00062,yes
0.00031,0.000109,0,0,0.00031,no
0.00062,0.000218,0,0,0.00062,no
0.00031,0.000109,0,0,0.00031,no
0.00062,0.000435,0,0,0.00062,no
0,0,0,0,0,no
0,0,0,0,0,no
0.001394,0.000979,0,0,0.001394,no
0.000852,0.001088,0,0,0.001394,no
0.001007,0.001197,0,0,0.001394,no
0.000155,0.000109,0.03125,0.333333,0.000155,no
0.00062,0.000435,0.25,0.333333,0.00062,yes
0,0,0,0,0,no
0.00093,0.000653,0,0,0.00093,no
0,0,0.03125,0,0,no
0,0,0,0,0,no
0,0,0,0,0,no
0,0,0,0,0,no
0,0,0,0,0,no
0,0,0.03125,0,0,no
0,0,0.03125,0,0,no
0,0,0,0,0,no
0,0,0,0,0,no
0,0,0,0,0,no
0,0,0,0,0,no
0,0,0,0,0,no
0,0,0,0,0,no
0,0,0,0,0,no
0,0,0.0625,0,0,no
0,0,0,0,0,no
0,0,0,0,0,no
0,0,0,0,0,no
0,0,0,0,0,no
0.00062,0.000218,0.03125,0,0.00062,no
0,0,0,0,0,no
0,0,0,0,0,no
0.00031,0.000109,0.0625,0,0.00031,no
0,0,0,0,0,no
0,0,0,0,0,no
0,0,0,0,0,no
0,0,0,0,0,no
0,0,0,0,0,no
0,0,0,0,0,no
0,0,0,0,0,no
0,0,0,0,0,no
0,0,0,0,0,no
0,0,0,0,0,no
0,0,0,0,0,no
0,0,0,0,0,no
0,0,0,0,0,no
0,0,0,0,0,no
0,0,0,0,0,no
0,0,0,0,0,no
0,0,0,0,0,no
0.015957,0.001523,0,0,0.015957,no
0.003408,0.001306,0,0,0.003408,no
0.003873,0.001523,0,0,0.003873,no
0.011154,0.007726,0,0,0.011154,no
0.011154,0.007726,0,0,0.011154,no
0.011154,0.007726,0,0,0.011154,no
0.011154,0.007726,0,0,0.011154,no
0.005009,0.010337,0,0,0.011154,no
0,0,0,0,0,no
0.00031,0.000435,0.5625,0.666667,0.00031,yes
0,0,0,0,0,no
0,0,0,0,0,no
0.00031,0.000435,0.59375,0.666667,0.00031,yes
0,0,0,0,0,no
0,0,0,0,0,no
0,0,0,0,0,no
0,0,0,0,0,no
0,0,0,0,0,no
0,0,0,0,0,no
0,0,0,0,0,no
0,0,0,0,0,no
0.00093,0.000653,0,0,0.00093,no
0,0,0,0,0,no
0,0,0,0,0,no
0,0,0,0,0,no
0.00031,0.000109,0,0,0.00031,no
0.00031,0.000109,0,0,0.00031,no
0,0,0,0,0,no
0,0,0,0,0,no
0,0,0,0,0,no
0.00093,0.000653,0,0,0.00093,no
0.005267,0.00457,0,0,0.007746,no
0.0055,0.006094,0.03125,0,0.004028,no
0.007901,0.004135,0.03125,0,0.004028,no
0.003641,0.001306,0,0,0.006816,no
0.002685,0.005332,0.03125,0,0.006352,no
0.003641,0.005005,0,0,0.006352,no
0,0,0,0,0,no
0.015027,0.000979,0,0,0.015027,no
0.001084,0.000653,0,0,0.001084,no
0.003098,0.004026,0,0.333333,0.005732,no
0.00395,0.005332,0,0,0.005732,no
0.012652,0.025789,0.03125,0.333333,0.031294,no
0.031294,0.021654,0,0.333333,0.031294,no
0.015724,0.021763,0,0.333333,0.031294,no
0.01229,0.025462,0.03125,0,0.031294,no
0.020294,0.028183,0.03125,0,0.031294,no
0.020294,0.028183,0,0,0.031294,no
0.020294,0.028183,0.03125,0,0.031294,no
0.004725,0.006638,0.0625,0,0.009295,no
0,0,0,0,0,no
0,0,0,0,0,no
0,0,0,0,0,no
0,0,0,0,0,no
0.003718,0.002503,0.03125,0,0.003408,no
0.003718,0.002503,0.03125,0,0.003408,no
0,0,0,0,0,no
0,0,0,0,0,no
0,0,0,0,0,no
0,0,0,0,0,no
0.000465,0.000218,0.0625,0.333333,0.00031,no
0,0,0,0,0,no
0.00062,0.000218,0.03125,0,0.00062,no
0,0,0.03125,0,0,yes
0,0,0.09375,0.333333,0,no
0,0,0.0625,0,0,no
0.007746,0.002394,0,0.666667,0.002634,no
0.002479,0.000218,0,0,0.002479,no
0.002634,0.001741,0,0,0.002634,yes
0.002634,0.001741,0,0,0.002634,no
0,0,0.03125,0,0,no
0.003098,0.003047,0.25,0.333333,0.004338,yes
0.001239,0.000871,0.21875,0.333333,0.00093,yes
0.0016,0.00272,0.15625,0.666667,0.002789,yes
0.00031,0.000109,0.09375,0.333333,0.00031,no
0.00031,0.000109,0.09375,0.333333,0.00031,no
0,0,0.0625,0.333333,0,no
0,0,0,0.333333,0,no
0.006352,0.008705,0.03125,0.333333,0.011619,yes
0.011619,0.008161,0.0625,0.333333,0.011619,yes
0,0,0,0,0,no
0.00062,0.000218,0,0,0.00062,no
0,0,0,0,0,no
0,0,0,0,0,no
0.00031,0.000109,0,0,0.00031,no
0,0,0,0,0,no
0,0,0.0625,0.333333,0,no
0,0,0.0625,0,0,no
0,0,0.03125,0,0,no
0,0,0,0,0,no
0,0,0,0,0,no
0,0,0.09375,0.333333,0,no
0,0,0,0,0,no
0,0,0,0,0,no
0,0,0,0,0,no
0,0,0,0,0,no
0.00062,0.000218,0,0,0.00062,no
0.00031,0.000109,0,0,0.00031,no
0,0,0,0,0,no
0.00031,0.000109,0,0,0.00031,no
0.00093,0.000326,0,0,0.00093,no
0.00093,0.000326,0.09375,0,0.00093,no
0.00062,0.000218,0,0.666667,0.00031,no
0,0,0,0,0,no
0,0,0,0,0,no
0.00093,0.000326,0.125,0.333333,0.00031,no
0,0,0,0,0,no
0,0,0,0,0,no
0,0,0,0,0,yes
0,0,0,0,0,no
0,0,0,0,0,no
0,0,0,0,0,no
0.005577,0.001959,0,0.333333,0.005577,no
0.001549,0.000109,0,0,0.001549,yes
0.000697,0.001088,0.15625,0.333333,0.000465,yes
0,0,0,0,0,no
0,0,0,0,0,no
0.000465,0.000218,0,0,0.000465,no
0,0,0,0,0,no
0.005267,0.000326,0,0,0.005267,no
0.005422,0.003482,0,0,0.005422,no
0.005422,0.003482,0,0,0.005422,no
0.005422,0.003482,0,0,0.005422,no
0.002866,0.003591,0.03125,0,0.005422,no
0.005422,0.003482,0,0,0.005422,no
0.01282,0.02111,0.03125,0.666667,0.02897,no
0.02897,0.019369,0,0,0.02897,no
0.02897,0.019369,0,0,0.02897,no
0.02897,0.019369,0,0,0.02897,no
0.02897,0.019369,0,0,0.02897,no
0.01464,0.019478,0,0,0.02897,no
0.01464,0.019478,0,0,0.02897,no
0.02897,0.019369,0,0,0.02897,no
0.02897,0.019369,0,0,0.02897,no
0.02897,0.019369,0,0,0.02897,no
0.01464,0.019478,0,0,0.02897,no
0.007823,0.020457,0.03125,0,0.02897,no
0.00763,0.020131,0.03125,0,0.02897,no
0.02897,0.019369,0,0,0.02897,no
0.009605,0.022089,0.0625,0.333333,0.02897,yes
0.009605,0.022089,0.0625,0.333333,0.02897,yes
0.002375,0.00185,0.03125,0,0.004183,yes
0.002634,0.003047,0.03125,0,0.004957,no
0.003176,0.003156,0.0625,0,0.003408,no
0.001859,0.002067,0,0,0.003408,no
0.004996,0.008814,0.0625,0,0.010999,no
0.006765,0.012622,0,0,0.010999,no
0.006158,0.013928,0,0.333333,0.010999,no
0.006429,0.015887,0,0.333333,0.010999,no
0.010741,0.012731,0.125,0.666667,0.010534,no
0.004854,0.009576,0.03125,0,0.008985,yes
0.006662,0.000762,0,0,0.006662,yes
0.00062,0.000544,0,0,0.00093,no
0.001239,0.000653,0,0,0.001239,no
0.025562,0.017628,0,0,0.024322,no
0.024322,0.016975,0,0,0.024322,no
0.024322,0.016975,0,0,0.024322,no
0.024322,0.016975,0,0,0.024322,yes
0.024322,0.016975,0.0625,0,0.024322,no
0.024322,0.016975,0,0,0.024322,yes
0.012316,0.017084,0.03125,0,0.024322,no
0.024322,0.016975,0.0625,0,0.024322,no
0.007901,0.02198,0.125,0.333333,0.024322,yes
0.007785,0.021763,0.03125,0.333333,0.024322,yes
0.009036,0.018934,0.03125,0,0.024322,yes
0.009411,0.024157,0.0625,0.333333,0.024322,yes
0.008017,0.022307,0.0625,0.333333,0.024322,yes
0.016835,0.028183,0.125,0.333333,0.024322,yes
0.015441,0.025354,0.09375,0.333333,0.024322,yes
0.012187,0.02198,0.03125,0,0.024322,yes
0.004493,0.001632,0.03125,0,0.004493,no
0,0,0,0,0,no
0,0,0,0,0,no
0,0,0,0,0,no
0,0,0,0,0,no
0.000542,0.000435,0,0,0.00062,no
0.00031,0.000109,0,0,0.00031,no
0,0,0,0,0,no
0.001084,0.000653,0,0,0.001084,yes
0.001084,0.000653,0,0,0.001084,no
0,0,0,0,0,no
0,0,0,0,0,no
0,0,0,0,0,no
0,0,0.03125,0,0,no
0.00031,0.000218,0.0625,0.333333,0.00031,no
0.003614,0.005658,0.25,0.333333,0.002634,no
0,0,0,0,0,yes
0,0,0,0,0,yes
0.000775,0.000653,0,0.333333,0.00062,no
0.000232,0.000218,0,0,0.00031,no
0.00093,0.000653,0,0,0.00093,no
0.002452,0.006202,0.3125,1,0.003098,yes
0.002556,0.00272,0.03125,0,0.003098,yes
0.003098,0.001959,0.03125,0,0.003098,no
0.00031,0.000109,0,0,0.00031,no
0.001394,0.000871,0.03125,0,0.00093,yes
0.00031,0.000109,0.1875,0.666667,0.00031,no
0.00031,0.000109,0,0,0.00031,no
0.001808,0.002176,0.09375,0.333333,0.003408,yes
0.001859,0.001632,0.03125,0,0.003408,yes
0,0,0.03125,0,0,yes
0.00062,0.000218,0,0,0.00062,no
0.00031,0.000109,0,0,0.00031,no
0,0,0,0,0,no
0,0,0,0,0,no
0,0,0,0,0,no
0.000387,0.000326,0,0,0.000465,no
0.002014,0.001415,0,0,0.002014,no
0.002014,0.001415,0,0,0.002014,no
0.000465,0.000435,0.03125,0,0.00031,no
0.00093,0.000326,0.15625,0.333333,0.00062,no
0.00031,0.000109,0.03125,0,0.00031,no
0.001239,0.001306,0.1875,0.666667,0.001549,yes
0,0,0,0,0,no
0,0,0,0.333333,0,no
0.00093,0.000326,0.09375,0.333333,0.00031,no
0.000465,0.000218,0.03125,0,0.000465,yes
0.00031,0.000109,0,0,0.00031,no
0.002479,0.000871,0.15625,0.666667,0.00062,yes
0,0,0,0,0,no
0,0,0,0,0,no
0,0,0,0,0,no
0,0,0,0,0,no
0,0,0,0,0,no
0.000465,0.000218,0.03125,0,0.000465,yes
0.001239,0.001523,0.1875,0.666667,0.001084,yes
0,0,0,0.333333,0,no
0,0,0,0,0,no
0,0,0,0,0,no
0,0,0,0,0,no
0,0,0,0,0,no
0,0,0,0,0,no
0,0,0,0.333333,0,no
0,0,0,0,0,no
0,0,0,0,0,no
0,0,0.03125,0,0,no
0,0,0.15625,0.333333,0,no
0,0,0,0,0,no
0,0,0,0,0,no
0,0,0.0625,0,0,no
0,0,0,0,0,no
0,0,0,0,0,no
0,0,0,0,0,no
0,0,0,0,0,no
0,0,0,0,0,no
0,0,0,0,0,no
0,0,0,0,0,no
0,0,0,0,0,no
0,0,0,0,0,no
0,0,0,0,0,no
0.005887,0.004135,0,0,0.005887,no
0.005887,0.004135,0,0,0.005887,no
0.005887,0.004135,0,0,0.005887,no
0.005887,0.004135,0,0,0.005887,no
0,0,0,0,0,no
0,0,0,0,0,no
0,0,0,0,0,no
0.00031,0.000109,0,0,0.00031,no
0,0,0,0,0,no
0.00031,0.000109,0,0,0.00031,no
0,0,0,0,0,no
0.00031,0.000109,0,0,0.00031,no
0,0,0,0,0,no
0.00031,0.000109,0,0,0.00031,no
0,0,0,0,0,yes
0.00031,0.000109,0,0,0.00031,no
0,0,0,0,0,no
0.00031,0.000218,0,0,0.00031,no
0,0,0,0,0,no
0,0,0,0,0,no
0,0,0,0,0,no
0.00031,0.000109,0,0,0.00031,no
0,0,0,0,0,no
0.00031,0.000109,0,0,0.00031,no
0,0,0,0,0,no
0.00031,0.000109,0,0,0.00031,no
0,0,0,0,0,no
0,0,0,0,0,no
0,0,0,0,0,no
0,0,0,0,0,no
0,0,0,0,0,no
0.00031,0.000109,0,0,0.00031,no
0,0,0,0,0,no
0.00031,0.000109,0,0,0.00031,no
0,0,0,0,0,no
0.00031,0.000109,0,0,0.00031,no
0,0,0,0,0,no
0.00031,0.000109,0,0,0.00031,no
0,0,0.03125,0,0,no
0,0,0.03125,0,0,no
0.00031,0.000109,0.03125,0,0.00031,no
0,0,0.0625,0,0,no
0,0,0,0,0,no
0.00031,0.000109,0,0,0.00031,no
0,0,0,0,0,yes
0.00031,0.000109,0,0,0.00031,no
0,0,0,0,0,no
0.00031,0.000218,0,0,0.00031,no
0,0,0,0,0,no
0,0,0.0625,0,0,no
0,0,0.0625,0,0,no
0,0,0.125,0.333333,0,no
0,0,0.125,0.333333,0,no
0,0,0.09375,0.333333,0,no
0,0,0.03125,0,0,no
0,0,0.09375,0.666667,0,no
0,0,0.09375,0.333333,0,no
0,0,0.03125,0,0,no
0,0,0,0,0,no
0,0,0.03125,0,0,no
0,0,0.03125,0,0,no
0,0,0.03125,0,0,yes
0,0,0,0,0,no
0,0,0.03125,0,0,no
0,0,0,0.333333,0,no
0,0,0,0,0,no
0,0,0,0,0,no
0,0,0,0,0,no
0,0,0.09375,0,0,no
0,0,0.03125,0,0,no
0,0,0.0625,0,0,no
0,0,0.03125,0,0,no
0,0,0.15625,0.333333,0,no
0,0,0.15625,0.333333,0,yes
0,0,0.03125,0,0,yes
0,0,0.0625,0,0,no
0,0,0.0625,0,0,no
0,0,0.03125,0,0,no
0,0,0,0,0,no
0,0,0.0625,0,0,no
0,0,0.03125,0,0,no
0,0,0,0,0,no
0,0,0,0,0,no
0,0,0.03125,0.666667,0,no
0,0,0.03125,0.333333,0,no
0,0,0,0,0,no
0,0,0.0625,0.666667,0,no
0,0,0.0625,0.333333,0,no
0,0,0.03125,0,0,no
0,0,0,0,0,no
0,0,0,0,0,no
0,0,0,0,0,no
0,0,0.09375,0.333333,0,no
0,0,0.03125,0.333333,0,no
0,0,0.03125,0,0,no
0,0,0,0,0,no
0,0,0.09375,0.666667,0,no
0,0,0.0625,0.333333,0,no
0,0,0,0,0,no
0,0,0.0625,0,0,no
0,0,0,0,0,no
0,0,0,0,0,no
0,0,0,0,0,no
0,0,0,0,0,no
0,0,0.03125,0,0,no
0,0,0.15625,0.333333,0,no
0,0,0.0625,0,0,no
0,0,0,0,0,no
0,0,0,0,0,no
0,0,0,0,0,no
0,0,0,0,0,no
0,0,0,0.333333,0,no
0,0,0,0,0,no
0,0,0,0,0,no
0,0,0,0,0,no
0,0,0,0,0,no
0,0,0,0,0,no
0,0,0,0,0,no
0,0,0.3125,0.666667,0,no
0.000775,0.000435,0,0,0.000775,no
0.000361,0.000435,0.0625,0,0.000465,yes
0.000775,0.000218,0.03125,0.333333,0.000465,no
0.000775,0.000218,0.03125,0,0.000465,yes
0.00031,0.000109,0.03125,0.333333,0.00031,no
0.00031,0.000109,0.03125,0,0.00031,yes
0.00062,0.000218,0,0,0.00062,no
0,0,0,0,0,no
0,0,0,0,0,no
0,0,0.03125,0,0,no
0,0,0,0,0,no
0.00031,0.000218,0.09375,0.333333,0.00031,no
0,0,0.03125,0.333333,0,no
0.01007,0.007073,0,0,0.01007,no
0.01007,0.007073,0.03125,0,0.01007,no
0.01007,0.007073,0.03125,0,0.01007,no
0.01007,0.007073,0,0,0.01007,no
0.01007,0.007073,0,0,0.01007,no
0.01007,0.007073,0,0,0.01007,no
0.001007,0.002067,0,0,0.001239,no
0.001162,0.003047,0,0,0.002789,no
0.002789,0.001959,0.03125,0,0.002789,no
0.002789,0.001959,0.03125,0,0.002789,no
0,0,0,0,0,no
0.003873,0.00272,0,0,0.003873,no
0.003873,0.00272,0,0,0.003873,no
0.003873,0.00272,0,0,0.003873,no
0.001084,0.000762,0,0,0.001084,no
0.005732,0.007835,0.125,0,0.010844,no
0.005732,0.011425,0,0,0.010844,no
0.005732,0.011425,0.0625,0,0.010844,no
0.004802,0.010337,0.15625,0.333333,0.010844,no
0.002293,0.005441,0.125,0.333333,0.002169,yes
0.001084,0.001415,0.03125,0,0.001859,no
0,0,0.59375,0.666667,0,yes
0,0,0,0.333333,0,no
0,0,0.03125,0.333333,0,yes
0,0,0,0.333333,0,no
0,0,0,0,0,no
0,0,0,0.333333,0,no
0.010225,0.007182,0.03125,0.333333,0.010225,no
0.010225,0.007182,0.0625,0,0.010225,no
0.010225,0.007182,0.03125,0,0.010225,no
0.010225,0.007182,0,0,0.010225,no
0,0,0,0,0,no
0.001084,0.000544,0,0,0.00062,no
0,0,0,0,0,no
0.00031,0.000109,0,0,0.00031,no
0,0,0,0,0,no
0.000465,0.000326,0.125,0.333333,0.00031,no
0,0,0.0625,0,0,no
0,0,0.0625,0,0,no
0,0,0.5,0.666667,0,no
0,0,0,0,0,no
0,0,0,0,0,no
0,0,0.0625,0,0,no
0,0,0.03125,0,0,no
0,0,0,0,0,no
0.00093,0.000653,0.03125,0,0.00093,no
0.000697,0.000871,0,0,0.001084,no
0.001084,0.000762,0.03125,0,0.001084,no
0,0,0.21875,0.333333,0,no
0,0,0.0625,0,0,no
0.00031,0.000109,0.15625,0.333333,0.00031,no
0,0,0.0625,0,0,no
0,0,0,0,0,no
0,0,0,0,0,no
0.00093,0.000326,0,0,0.00093,no
0,0,0,0,0,no
0,0,0.03125,0,0,no
0,0,0,0,0,no
0.000516,0.000871,0,0,0.00093,no
0.001084,0.001415,0,0.333333,0.001239,no
0.00093,0.000979,0.09375,0.333333,0.00093,no
0.00093,0.000326,0.03125,0.333333,0.00031,yes
0.000569,0.000435,0.09375,0.333333,0.000775,no
0.001033,0.001088,0.0625,0.666667,0.00093,yes
0.000697,0.000435,0.0625,0,0.00093,yes
0.000387,0.000653,0.0625,0.666667,0.000465,yes
0.00031,0.000109,0.0625,0,0.00031,yes
0.00062,0.000218,0.03125,0,0.00031,no
0.00031,0.000109,0.03125,0,0.00031,no
0,0,0.03125,0,0,no
0.00031,0.000109,0.0625,0.333333,0.00031,no
0,0,0.0625,0,0,no
0,0,0,0,0,no
0.00031,0.000218,0,0,0.00031,no
0,0,0,0,0,yes
0.000387,0.000326,0.0625,0,0.000465,no
0.00093,0.000762,0.15625,0.333333,0.000465,yes
0.000542,0.000435,0.09375,0,0.000465,no
0.00129,0.00185,0.1875,0.333333,0.001859,yes
0.00093,0.000762,0.1875,0.333333,0.00062,yes
0,0,0,0,0,no
0,0,0,0,0,no
0,0,0,0,0,no
0,0,0.03125,0,0,no
0.000465,0.000326,0,0,0.000465,no
0,0,0,0,0,no
0,0,0,0,0,no
0,0,0,0,0,no
0,0,0,0,0,no
0,0,0,0,0,no
0,0,0,0,0,no
0,0,0,0,0,no
0,0,0,0,0,no
0,0,0.03125,0,0,no
0,0,0.03125,0,0,no
0,0,0,0,0,no
0,0,0.03125,0,0,no
0,0,0.03125,0,0,no
0,0,0,0,0,no
0,0,0,0,0,no
0,0,0,0,0,no
0,0,0.03125,0,0,no
0,0,0,0,0,no
0,0,0.0625,0,0,yes
0,0,0,0,0,no
0,0,0,0,0,no
0,0,0,0,0,no
0,0,0,0,0,no
0,0,0,0,0,no
0,0,0,0,0,no
0,0,0,0,0,no
0,0,0,0,0,no
0,0,0.125,0.333333,0,no
0,0,0.0625,0,0,no
0,0,0.0625,0,0,no
0,0,0.0625,0,0,no
0,0,0,0,0,no
0,0,0,0,0,no
0,0,0,0,0,no
0,0,0.09375,0,0,no
0,0,0.0625,0,0,no
0,0,0.09375,0,0,no
0,0,0.03125,0,0,no
0.00031,0.000109,0,0,0.00031,no
0.001007,0.000762,0.125,0.333333,0.000465,no
0.00395,0.004353,0,0,0.005112,no
0.003486,0.004026,0,0,0.005112,no
0.006662,0.005441,0.03125,0.333333,0.006352,no
0.006093,0.00642,0.09375,0,0.004957,yes
0.005693,0.008487,0.03125,0.333333,0.004957,yes
0.002789,0.005114,0.125,0.333333,0.003408,yes
0.00031,0.000218,0,0,0.00031,no
0,0,0,0,0,yes
0.00031,0.000109,0.1875,0.333333,0.00031,yes
0,0,0,0,0,no
0.00031,0.000109,0.0625,0,0.00031,no
0.001549,0.000544,0.03125,0,0.00062,yes
0,0,0.0625,0,0,no
0,0,0.03125,0,0,no
0,0,0.03125,0,0,no
0,0,0,0,0,no
0,0,0,0,0,no
0,0,0.03125,0,0,no
0.00062,0.000435,0.03125,0,0.00031,no
0.00031,0.000109,0,0,0.00031,no
0.00031,0.000109,0.0625,0,0.00031,no
0,0,0,0,0,no
0.00031,0.000109,0,0,0.00031,no
0,0,0.0625,0.666667,0,no
0,0,0.0625,0.333333,0,no
0,0,0.03125,0,0,no
0,0,0,0,0,no
0,0,0,0,0,no
0,0,0,0,0,no
0,0,0,0,0,no
0,0,0,0,0,no
0,0,0,0,0,no
0,0,0,0,0,no
0,0,0,0,0,no
0.00031,0.000109,0,0.333333,0.00031,no
0,0,0,0,0,no
0,0,0,0,0,no
0.00031,0.000109,0,0,0.00031,no
0.00031,0.000109,0,0.333333,0.00031,no
0.00031,0.000109,0,0,0.00031,no
0,0,0,0,0,no
0,0,0,0,0,no
0.00031,0.000109,0,0,0.00031,no
0.00031,0.000109,0,0,0.00031,no
0,0,0,0,0,no
0,0,0,0,0,no
0,0,0,0,0,no
0.00031,0.000109,0,0,0.00031,no
0.00031,0.000109,0,0.333333,0.00031,no
0.00031,0.000218,0.0625,0.333333,0.00031,yes
0.00031,0.000218,0,0.333333,0.00031,no
0,0,0.03125,0,0,no
0.00093,0.000326,0.1875,0.333333,0.00062,yes
0.00062,0.000218,0,0.333333,0.00031,no
0,0,0,0,0,no
0.000775,0.000544,0.15625,0.333333,0.00031,yes
0.00062,0.000435,0.09375,0.666667,0.00031,no
0,0,0.0625,0,0,no
0.00062,0.000218,0.09375,0.333333,0.00031,yes
0,0,0,0,0,yes
0,0,0.03125,0,0,no
0,0,0.03125,0,0,no
0,0,0.0625,0,0,no
0.00031,0.000109,0,0,0.00031,no
0,0,0.15625,0.333333,0,no
0,0,0.09375,0,0,yes
0,0,0.125,0,0,yes
0.00031,0.000109,0,0,0.00031,no
0,0,0,0,0,no
0,0,0,0,0,yes
0,0,0,0,0,no
0,0,0,0,0,no
0.00031,0.000109,0.0625,0.333333,0.00031,no
0,0,0,0,0,no
0,0,0,0,0,no
0.00031,0.000109,0.09375,0.333333,0.00031,no
0,0,0.0625,0,0,no
0,0,0.03125,0,0,no
0,0,0.03125,0,0,no
0,0,0,0,0,no
0,0,0,0,0,no
0,0,0,0,0,no
0,0,0,0,0,no
0,0,0,0,0,no
0,0,0,0,0,no
0,0,0,0,0,no
0,0,0,0,0,no
0,0,0,0,0,no
0,0,0,0,0,no
0,0,0.03125,0,0,no
0,0,0,0,0,no
0,0,0.09375,0,0,no
0.00062,0.000218,0,0.333333,0.00062,no
0,0,0.09375,0,0,no
0,0,0.3125,0.666667,0,no
0,0,0,0,0,no
0,0,0.0625,0,0,no
0,0,0,0,0,no
0,0,0.0625,0,0,no
0,0,0,0,0,no
0,0,0,0,0,no
0,0,0,0,0,no
0,0,0,0,0,no
0,0,0,0,0,no
0,0,0,0,0,no
0,0,0,0,0,no
0,0,0,0,0,no
0.00031,0.000109,0,0,0.00031,no
0,0,0,0,0,no
0.00031,0.000218,0,0,0.00031,no
0.00031,0.000218,0,0,0.00031,no
0.00031,0.000109,0,0,0.00031,no
0,0,0,0,0,no
0,0,0.03125,0,0,no
0,0,0.03125,0,0,no
0,0,0,0,0,no
0,0,0,0,0,no
0,0,0,0,0,no
0.00062,0.000435,0.15625,0.333333,0.00031,no
0.00031,0.000109,0,0,0.00031,no
0,0,0.03125,0,0,no
0.00062,0.000218,0.09375,0,0.00062,no
0,0,0,0,0,no
0.00031,0.000109,0.03125,0,0.00031,no
0,0,0,0,0,no
0,0,0,0,0,yes
0.001653,0.00185,0.21875,0.333333,0.001549,yes
0.003331,0.002394,0.125,0.333333,0.004802,yes
0.00093,0.000653,0.09375,0.333333,0.00062,no
0.002479,0.000871,0.1875,0.333333,0.001239,no
0.002866,0.002285,0.09375,0.333333,0.004802,yes
0,0,0,0,0,no
0,0,0,0,0,no
0.00093,0.000653,0.1875,0.333333,0.00062,no
0.00031,0.000109,0,0,0.00031,no
0.00093,0.000326,0.03125,0,0.00031,no
0.00031,0.000109,0,0,0.00031,no
0.000465,0.000326,0.25,0.333333,0.00031,no
0,0,0,0,0,no
0,0,0,0,0,no
0,0,0,0,0,no
0,0,0.03125,0,0,no
0,0,0,0,0,no
0,0,0,0,0,no
0,0,0,0,0,no
0,0,0,0,0,no
0,0,0,0,0,no
0,0,0,0,0,no
0,0,0.03125,0.333333,0,yes
0,0,0.03125,0,0,no
0,0,0.03125,0.333333,0,no
0,0,0.03125,0,0,no
0,0,0.09375,0.333333,0,no
0,0,0,0,0,no
0,0,0,0,0,no
0,0,0,0,0,no
0,0,0.09375,0,0,no
0,0,0,0,0,no
0,0,0,0,0,no
0.00031,0.000109,0,0,0.00031,no
0,0,0.21875,0.333333,0,no
0.001239,0.000762,0.125,0.333333,0.001239,no
0.000465,0.000326,0.0625,0.333333,0.00031,yes
0.00062,0.000218,0.09375,0.333333,0.00031,no
0,0,0,0,0,no
0.00031,0.000109,0,0,0.00031,no
0.001239,0.000435,0.28125,0.333333,0.00062,no
0.001239,0.000435,0.09375,0.666667,0.00062,no
0.00031,0.000109,0,0,0.00031,no
0.00062,0.000218,0.0625,0,0.00031,no
0.00031,0.000109,0,0.333333,0.00031,no
0.00062,0.000218,0.03125,0.333333,0.00031,no
0.00031,0.000109,0,0,0.00031,no
0.00062,0.000218,0.0625,0.333333,0.00031,no
0.00031,0.000109,0,0,0.00031,no
0.00062,0.000218,0.03125,0.666667,0.00031,no
0,0,0,0,0,no
0,0,0,0,0,no
0,0,0.03125,0,0,no
0.00093,0.000326,0.0625,0,0.00062,no
0.000465,0.000326,0.09375,0.333333,0.00031,yes
0.00062,0.000435,0.0625,0.333333,0.00031,no
0.00031,0.000218,0.03125,0,0.00031,no
0.00031,0.000109,0,0,0.00031,no
0.00031,0.000109,0,0,0.00031,no
0.00093,0.000653,0.09375,0.333333,0.00031,no
0.00031,0.000109,0.03125,0,0.00031,no
0.00093,0.000653,0.09375,0.333333,0.00031,no
0.00031,0.000109,0.03125,0,0.00031,no
0.00031,0.000109,0.09375,0,0.00031,no
0.001084,0.000762,0.09375,0.333333,0.00062,no
0.00093,0.000326,0.03125,0,0.00062,no
0,0,0,0,0,no
0,0,0,0,0,no
0,0,0,0,0,no
0.00031,0.000109,0,0,0.00031,no
0.00031,0.000109,0,0,0.00031,no
0,0,0,0,0,no
0,0,0,0,0,no
0,0,0,0,0,no
0.00062,0.000435,0.3125,0.666667,0.00031,no
0.001394,0.000979,0.375,0.666667,0.00062,no
0.00062,0.000435,0.21875,0.333333,0.00031,no
0,0,0.0625,0,0,no
0.00031,0.000109,0,0,0.00031,no
0.00031,0.000109,0,0,0.00031,no
0.000775,0.000544,0.21875,0.333333,0.00031,no
0,0,0.03125,0,0,no
0,0,0,0,0,no
0,0,0,0,0,no
0,0,0,0,0,no
0,0,0,0,0,no
0.004183,0.001523,0,0.333333,0.001239,no
0.001239,0.000435,0,0,0.001239,no
0.001239,0.000435,0,0,0.001239,no
0.001084,0.000435,0,0,0.001084,no
0,0,0,0,0,no
0.001394,0.000979,0,0,0.001394,no
0,0,0,0,0,no
0,0,0,0,0,no
0,0,0,0,0,no
0.00093,0.000326,0.15625,0.666667,0.00031,no
0,0,0.0625,0,0,no
0.00031,0.000109,0.03125,0,0.00031,no
0.00031,0.000109,0.03125,0,0.00031,no
0.00031,0.000109,0,0,0.00031,no
0.00062,0.000218,0,0,0.00062,no
0,0,0,0,0,no
0,0,0,0,0,no
0,0,0,0,0,no
0.000775,0.000544,0.0625,0,0.00062,no
0.00031,0.000109,0.03125,0,0.00031,no
0.00031,0.000109,0.03125,0,0.00031,no
0.00062,0.000218,0,0,0.00062,no
0,0,0,0,0,no
0,0,0,0,0,no
0,0,0,0,0,no
0,0,0.03125,0,0,no
0,0,0.03125,0,0,no
0,0,0.03125,0,0,no
0,0,0,0,0,no
0,0,0,0,0,no
0,0,0,0,0,no
0,0,0,0,0,no
0,0,0,0,0,no
0,0,0,0,0,no
0,0,0,0,0,no
0,0,0.0625,0,0,no
0,0,0,0,0,no
0,0,0,0,0,no
0,0,0.125,0.333333,0,no
0,0,0.03125,0,0,no
0,0,0,0,0,no
0,0,0.0625,0,0,no
0,0,0,0,0,no
0,0,0,0,0,no
0,0,0,0,0,no
0,0,0,0,0,no
0,0,0,0,0,no
0,0,0,0,0,no
0,0,0,0,0,no
0,0,0.03125,0,0,no
0,0,0,0,0,no
0,0,0,0,0,no
0,0,0,0,0,no
0,0,0,0,0,no
0,0,0,0,0,no
0,0,0,0,0,no
0,0,0,0,0,no
0,0,0,0,0,no
0,0,0,0,0,no
0,0,0,0,0,no
0,0,0.03125,0,0,yes
0,0,0.09375,0,0,no
0,0,0,0,0,no
0,0,0,0,0,no
0,0,0,0,0,no
0,0,0.25,0.333333,0,yes
0,0,0,0,0,no
0,0,0,0,0,no
0,0,0,0,0,no
0,0,0,0,0,no
0,0,0,0,0,no
0,0,0,0,0,no
0,0,0,0,0,no
0,0,0,0,0,no
0,0,0,0,0,no
0,0,0,0,0,no
0,0,0,0,0,no
0,0,0,0,0,no
0,0,0,0,0,no
0,0,0,0,0,no
0,0,0,0,0,no
0.003098,0.000326,0,0,0.003098,no
0.003098,0.000326,0,0,0.003098,no
0.003408,0.002176,0,0,0.003408,no
0.003408,0.002176,0.0625,0,0.003408,yes
0.004338,0.002503,0,0,0.003408,no
0.001704,0.000653,0,0,0.001704,no
0.002634,0.000979,0,0,0.001704,no
0.001859,0.000653,0,0,0.00093,no
0.005112,0.003156,0,0,0.004183,no
0.004183,0.002829,0.03125,0,0.004183,no
0.004183,0.002829,0,0,0.004183,no
0.013633,0.003917,0,0,0.013633,no
0.013633,0.003917,0.21875,0,0.013633,yes
0.014562,0.004244,0,0,0.013633,no
0.001704,0.000653,0,0,0.001704,no
0.002634,0.000979,0,0,0.001704,no
0.001859,0.000653,0,0,0.00093,no
0.005112,0.003156,0,0,0.004183,no
0.004183,0.002829,0.03125,0,0.004183,no
0.004183,0.002829,0,0,0.004183,no
0.01828,0.005876,0,0,0.01828,no
0.01828,0.005876,0.40625,0.666667,0.01828,yes
0.01921,0.006202,0,0,0.01828,no
0.001704,0.000653,0,0,0.001704,no
0.002634,0.000979,0,0,0.001704,no
0.001859,0.000653,0,0,0.00093,no
0.005112,0.003156,0,0,0.004183,no
0.004183,0.002829,0.03125,0,0.004183,no
0.004183,0.002829,0,0,0.004183,no
0.00976,0.002067,0,0,0.00976,no
0.00976,0.002067,0,0,0.00976,no
0.00976,0.002067,0,0,0.00976,no
0.00976,0.002067,0,0,0.00976,no
0.010999,0.002503,0,0,0.00976,no
0.027421,0.000544,0,0,0.026181,no
0.004648,0.000762,0,0,0.004648,no
0.001549,0.000218,0,0,0.001549,no
0.002169,0.000762,0,0,0.002169,no
0.002014,0.000218,0,0,0.002014,no
0.002014,0.000762,0,0,0.002014,no
0.00062,0.000218,0,0,0.00062,no
0.000775,0.000326,0,0,0.000775,no
0.026336,0.016213,0.09375,0,0.026336,no
0.026336,0.016213,0.09375,0,0.026336,no
0.026336,0.016213,0.125,0.333333,0.026336,no
0.026336,0.016213,0,0,0.026336,no
0.026336,0.016213,0,0,0.026336,no
0.026336,0.016213,0,0,0.026336,no
0.026336,0.016213,0,0,0.026336,no
0.026336,0.016213,0,0,0.026336,no
0.026336,0.016213,0,0,0.026336,no
0.026336,0.016213,0.03125,0,0.026336,no
0.026336,0.016213,0.03125,0,0.026336,no
0.026336,0.016213,0,0,0.026336,no
0.026336,0.016213,0,0,0.026336,no
0.026336,0.016213,0,0,0.026336,no
0.026336,0.016213,0,0,0.026336,no
0.026336,0.016213,0,0,0.026336,no
0.026336,0.016213,0,0,0.026336,no
0.026336,0.016213,0,0,0.026336,no
0.026336,0.016213,0,0,0.026336,no
0.026336,0.016213,0,0,0.026336,no
0.026336,0.016213,0.03125,0,0.026336,no
0.00093,0.000326,0,0,0.00093,no
0.001084,0.000435,0,0,0.001084,no
0.001704,0.000326,0,0,0.001704,no
0.063052,0.00555,0,0,0.063052,no
0.063052,0.00555,0.03125,0,0.063052,no
0.063052,0.00555,0.03125,0,0.063052,no
0.063052,0.00555,0.03125,0,0.063052,no
0.063052,0.00555,0.03125,0,0.063052,no
0.063052,0.00555,0.125,0,0.063052,no
0.006816,0.004461,0.25,0.333333,0.006816,no
0.001239,0.000544,0,0,0.001239,no
0.052363,0.000979,0,0,0.052363,no
0.052363,0.000979,0.03125,0,0.052363,no
0.088923,0.000326,0,0,0.088923,no
0.002014,0.000435,0,0,0.002014,no
0.001704,0.000218,0,0,0.001704,no
0.108133,0.000653,0.03125,0,0.108133,no
0.001859,0.000435,0,0,0.001859,no
0.006197,0.004244,0,0,0.006197,no
0.006197,0.004244,0,0,0.006197,no
0.006197,0.004244,0.03125,0,0.006197,no
0.006197,0.004244,0,0,0.006197,no
0.006197,0.004244,0.03125,0,0.006197,no
0.006197,0.004244,0,0,0.006197,no
0.003873,0.000979,0,0,0.003873,no
0.007901,0.001306,0,0,0.007901,no
0.007901,0.001306,0,0,0.007901,no
0.007901,0.001306,0,0,0.007901,no
0.00914,0.001741,0,0,0.007901,no
0.050349,0.03482,0,0,0.049109,no
0.049109,0.034385,0,0,0.049109,no
0.049109,0.034385,0,0,0.049109,no
0.049109,0.034385,0,0,0.049109,no
0.049109,0.034385,0,0,0.049109,no
0.049109,0.034385,0,0,0.049109,no
0.049109,0.034385,0.0625,0,0.049109,no
0.049109,0.034385,0.0625,0,0.049109,no
0.049109,0.034385,0.09375,0,0.049109,no
0.049109,0.034385,0,0,0.049109,no
0.049109,0.034385,0,0,0.049109,no
0.049109,0.034385,0,0,0.049109,no
0.049109,0.034385,0,0,0.049109,no
0.049109,0.034385,0,0,0.049109,no
0.049109,0.034385,0,0,0.049109,no
0.049109,0.034385,0.03125,0,0.049109,no
0.049109,0.034385,0.03125,0,0.049109,no
0.049109,0.034385,0,0,0.049109,no
0.049109,0.034385,0,0,0.049109,no
0.049109,0.034385,0,0,0.049109,no
0.049109,0.034385,0,0,0.049109,no
0.049109,0.034385,0,0,0.049109,no
0.049109,0.034385,0,0,0.049109,no
0.049109,0.034385,0,0,0.049109,no
0.049109,0.034385,0,0,0.049109,no
0.049109,0.034385,0,0,0.049109,no
0.049109,0.034385,0.03125,0,0.049109,no
0.049109,0.034385,0,0,0.049109,no
0.049109,0.034385,0,0,0.049109,no
0.049109,0.034385,0,0,0.049109,no
0.049109,0.034385,0,0,0.049109,no
0.049109,0.034385,0.03125,0,0.049109,no
0.049109,0.034385,0.03125,0,0.049109,no
0.049109,0.034385,0.03125,0,0.049109,no
0.049109,0.034385,0.03125,0,0.049109,no
0.049109,0.034385,0.09375,0,0.049109,no
0.049109,0.034385,0.1875,0.333333,0.049109,no
0.049109,0.034385,0,0,0.049109,no
0.049109,0.034385,0,0,0.049109,no
0.049109,0.034385,0.03125,0,0.049109,no
0.049109,0.034385,0,0,0.049109,no
0.049109,0.034385,0,0,0.049109,no
0.049109,0.034385,0,0,0.049109,no
0.049109,0.034385,0,0,0.049109,no
0.049109,0.034385,0,0,0.049109,no
0.268939,0.188683,0,0,0.268939,no
0.268939,0.188683,0,0,0.268939,no
0.268939,0.188683,0,0,0.268939,no
0.268939,0.188683,0,0,0.268939,no
0.268939,0.188683,0,0,0.268939,no
0.268939,0.188683,0,0,0.268939,no
0.268939,0.188683,0,0,0.268939,no
0.268939,0.188683,0,0,0.268939,no
0.268939,0.188683,0,0,0.268939,no
0.268939,0.188683,0,0,0.268939,no
0.268939,0.188683,0,0,0.268939,no
0.268939,0.188683,0,0,0.268939,no
0.268939,0.188683,0.03125,0,0.268939,no
0.268939,0.188683,0.03125,0,0.268939,no
0.268939,0.188683,0.0625,0,0.268939,no
0.268939,0.188683,0,0,0.268939,no
0.268939,0.188683,0,0,0.268939,no
0.268939,0.188683,0,0,0.268939,no
0.268939,0.188683,0,0,0.268939,no
0.268939,0.188683,0,0,0.268939,no
0.268939,0.188683,0,0,0.268939,no
0.268939,0.188683,0.03125,0,0.268939,no
0.268939,0.188683,0.03125,0,0.268939,no
0.268939,0.188683,0,0,0.268939,no
0.268939,0.188683,0,0,0.268939,no
0.268939,0.188683,0,0,0.268939,no
0.268939,0.188683,0,0,0.268939,no
0.268939,0.188683,0,0,0.268939,no
0.268939,0.188683,0,0,0.268939,no
0.268939,0.188683,0,0,0.268939,no
0.268939,0.188683,0,0,0.268939,no
0.268939,0.188683,0,0,0.268939,no
0.268939,0.188683,0.03125,0,0.268939,no
0.268939,0.188683,0,0,0.268939,no
0.268939,0.188683,0,0,0.268939,no
0.268939,0.188683,0,0,0.268939,no
0.268939,0.188683,0,0,0.268939,no
0.268939,0.188683,0.03125,0,0.268939,no
0.268939,0.188683,0.03125,0,0.268939,no
0.268939,0.188683,0.0625,0,0.268939,no
0.268939,0.188683,0.03125,0,0.268939,no
0.268939,0.188683,0.125,0,0.268939,no
0.268939,0.188683,0.1875,0.333333,0.268939,no
0.268939,0.188683,0,0,0.268939,no
0.268939,0.188683,0,0,0.268939,no
0.268939,0.188683,0,0,0.268939,no
0.268939,0.188683,0,0,0.268939,no
0.268939,0.188683,0,0,0.268939,no
0.268939,0.188683,0,0,0.268939,no
0.268939,0.188683,0,0,0.268939,no
0.268939,0.188683,0.03125,0,0.268939,no
0.268939,0.188683,0,0,0.268939,no
0.268939,0.188683,0.0625,0,0.268939,no
0.268939,0.188683,0.03125,0,0.268939,no
0.268939,0.188683,0.03125,0,0.268939,no
0.268939,0.188683,0,0,0.268939,no
0.268939,0.188683,0,0,0.268939,no
0.268939,0.188683,0,0,0.268939,no
0.268939,0.188683,0,0,0.268939,no
0.268939,0.188683,0,0,0.268939,no
0.268939,0.188683,0,0,0.268939,no
0.268939,0.188683,0,0,0.268939,no
0.268939,0.188683,0,0,0.268939,no
0.268939,0.188683,0,0,0.268939,no
0.268939,0.188683,0,0,0.268939,no
0.268939,0.188683,0,0,0.268939,no
0.268939,0.188683,0,0,0.268939,no
0.268939,0.188683,0,0,0.268939,no
0.268939,0.188683,0,0,0.268939,no
0.268939,0.188683,0,0,0.268939,no
0.268939,0.188683,0,0,0.268939,no
0.268939,0.188683,0,0,0.268939,no
0.268939,0.188683,0,0,0.268939,no
0.268939,0.188683,0,0,0.268939,no
0.268939,0.188683,0,0,0.268939,no
0.268939,0.188683,0,0,0.268939,no
0.268939,0.188683,0,0,0.268939,no
0.268939,0.188683,0,0,0.268939,no
0.268939,0.188683,0,0,0.268939,no
0.268939,0.188683,0,0,0.268939,no
0.268939,0.188683,0,0,0.268939,no
0.268939,0.188683,0,0,0.268939,no
0.268939,0.188683,0,0,0.268939,no
0.268939,0.188683,0,0,0.268939,no
0.268939,0.188683,0,0,0.268939,no
0.268939,0.188683,0,0,0.268939,no
0.268939,0.188683,0,0,0.268939,no
0.268939,0.188683,0,0,0.268939,no
0.268939,0.188683,0.5,0.666667,0.268939,no
0.268939,0.188683,0.34375,0.666667,0.268939,no
0.268939,0.188683,0.375,0.666667,0.268939,no
0.268939,0.188683,0,0,0.268939,no
0.268939,0.188683,0,0,0.268939,no
0.268939,0.188683,0,0,0.268939,no
0.268939,0.188683,0,0,0.268939,no
0.268939,0.188683,0,0,0.268939,no
0.268939,0.188683,0,0,0.268939,no
0.268939,0.188683,0.03125,0,0.268939,no
0.268939,0.188683,0.03125,0,0.268939,no
0.268939,0.188683,0,0,0.268939,no
0.268939,0.188683,0,0,0.268939,no
0.268939,0.188683,0,0,0.268939,no
0.268939,0.188683,0,0,0.268939,no
0.268939,0.188683,0,0,0.268939,no
0.268939,0.188683,0,0,0.268939,no
0.268939,0.188683,0,0,0.268939,no
0.268939,0.188683,0,0,0.268939,no
0.268939,0.188683,0,0,0.268939,no
0.268939,0.188683,0.03125,0,0.268939,no
0.268939,0.188683,0,0,0.268939,no
0.268939,0.188683,0,0,0.268939,no
0.268939,0.188683,0,0,0.268939,no
0.268939,0.188683,0,0,0.268939,no
0.268939,0.188683,0.03125,0,0.268939,no
0.268939,0.188683,0.03125,0,0.268939,no
0.268939,0.188683,0.0625,0,0.268939,no
0.268939,0.188683,0.03125,0,0.268939,no
0.268939,0.188683,0.4375,0.666667,0.268939,no
0.268939,0.188683,0.75,0.666667,0.268939,no
0.268939,0.188683,0,0,0.268939,no
0.268939,0.188683,0,0,0.268939,no
0.268939,0.188683,0.03125,0,0.268939,no
0.268939,0.188683,0,0,0.268939,no
0.268939,0.188683,0,0,0.268939,no
0.268939,0.188683,0,0,0.268939,no
0.268939,0.188683,0.03125,0,0.268939,no
0.268939,0.188683,0,0,0.268939,no
0.268939,0.188683,0,0,0.268939,no
0.268939,0.188683,0,0,0.268939,no
0.268939,0.188683,0,0,0.268939,no
0.268939,0.188683,0.03125,0,0.268939,no
0.268939,0.188683,0.0625,0,0.268939,no
0.268939,0.188683,0.03125,0,0.268939,no
0.268939,0.188683,0,0,0.268939,no
0.268939,0.188683,0,0,0.268939,no
0.268939,0.188683,0,0,0.268939,no
0.268939,0.188683,0,0,0.268939,no
0.268939,0.188683,0,0,0.268939,no
0.268939,0.188683,0,0,0.268939,no
0.268939,0.188683,0,0,0.268939,no
0.268939,0.188683,0,0,0.268939,no
0.268939,0.188683,0,0,0.268939,no
0.268939,0.188683,0,0,0.268939,no
0.268939,0.188683,0,0,0.268939,no
0.268939,0.188683,0.03125,0,0.268939,no
0.268939,0.188683,0,0,0.268939,no
0.268939,0.188683,0,0,0.268939,no
0.268939,0.188683,0,0,0.268939,no
0.268939,0.188683,0.03125,0,0.268939,no
0.268939,0.188683,0,0,0.268939,no
0.268939,0.188683,0.03125,0,0.268939,no
0.268939,0.188683,0,0,0.268939,no
0.268939,0.188683,0,0,0.268939,no
0.268939,0.188683,0,0,0.268939,no
0.268939,0.188683,0.03125,0,0.268939,no
0.268939,0.188683,0,0,0.268939,no
0.268939,0.188683,0.03125,0,0.268939,no
0.268939,0.188683,0,0,0.268939,no
0.268939,0.188683,0,0,0.268939,no
0.268939,0.188683,0,0,0.268939,no
0.268939,0.188683,0.03125,0,0.268939,no
0.268939,0.188683,0,0,0.268939,no
0.268939,0.188683,0.03125,0,0.268939,no
0.268939,0.188683,0,0,0.268939,no
0.268939,0.188683,0,0,0.268939,no
0.268939,0.188683,0,0,0.268939,no
0.268939,0.188683,0.03125,0,0.268939,no
0.268939,0.188683,0,0,0.268939,no
0.268939,0.188683,0.03125,0,0.268939,no
0.268939,0.188683,0,0,0.268939,no
0.268939,0.188683,0,0,0.268939,no
0.268939,0.188683,0,0,0.268939,no
0.268939,0.188683,0.03125,0,0.268939,no
0.268939,0.188683,0,0,0.268939,no
0.268939,0.188683,0.03125,0,0.268939,no
0.268939,0.188683,0,0,0.268939,no
0.268939,0.188683,0,0,0.268939,no
0.268939,0.188683,0,0,0.268939,no
0.268939,0.188683,0.03125,0,0.268939,no
0.268939,0.188683,0,0,0.268939,no
0.268939,0.188683,0.03125,0,0.268939,no
0.268939,0.188683,0,0,0.268939,no
0.268939,0.188683,0,0,0.268939,no
0.268939,0.188683,0,0,0.268939,no
0.268939,0.188683,0,0,0.268939,no
0.268939,0.188683,0,0,0.268939,no
0.268939,0.188683,0,0,0.268939,no
0.268939,0.188683,0,0,0.268939,no
0.268939,0.188683,0,0,0.268939,no
0.268939,0.188683,0,0,0.268939,no
0.268939,0.188683,0,0,0.268939,no
0.268939,0.188683,0.0625,0,0.268939,no
0.268939,0.188683,0.03125,0,0.268939,no
0.268939,0.188683,0.0625,0,0.268939,no
0.268939,0.188683,0,0,0.268939,no
0.268939,0.188683,0,0,0.268939,no
0.268939,0.188683,0,0,0.268939,no
0.268939,0.188683,0,0,0.268939,no
0.268939,0.188683,0,0,0.268939,no
0.268939,0.188683,0,0,0.268939,no
0.268939,0.188683,0.03125,0,0.268939,no
0.268939,0.188683,0.03125,0,0.268939,no
0.268939,0.188683,0,0,0.268939,no
0.268939,0.188683,0,0,0.268939,no
0.268939,0.188683,0,0,0.268939,no
0.268939,0.188683,0,0,0.268939,no
0.268939,0.188683,0,0,0.268939,no
0.268939,0.188683,0,0,0.268939,no
0.268939,0.188683,0,0,0.268939,no
0.268939,0.188683,0,0,0.268939,no
0.268939,0.188683,0,0,0.268939,no
0.268939,0.188683,0.03125,0,0.268939,no
0.268939,0.188683,0,0,0.268939,no
0.268939,0.188683,0,0,0.268939,no
0.268939,0.188683,0,0,0.268939,no
0.268939,0.188683,0,0,0.268939,no
0.268939,0.188683,0.03125,0,0.268939,no
0.268939,0.188683,0.03125,0,0.268939,no
0.268939,0.188683,0.03125,0,0.268939,no
0.268939,0.188683,0.03125,0,0.268939,no
0.268939,0.188683,0.0625,0,0.268939,no
0.268939,0.188683,0.1875,0.333333,0.268939,no
0.268939,0.188683,0,0,0.268939,no
0.268939,0.188683,0,0,0.268939,no
0.268939,0.188683,0.03125,0,0.268939,no
0.268939,0.188683,0,0,0.268939,no
0.268939,0.188683,0.03125,0,0.268939,no
0.268939,0.188683,0,0,0.268939,no
0.268939,0.188683,0,0,0.268939,no
0.268939,0.188683,0,0,0.268939,no
0.268939,0.188683,0,0,0.268939,no
0.268939,0.188683,0,0,0.268939,no
0.268939,0.188683,0,0,0.268939,no
0.268939,0.188683,0,0,0.268939,no
0.008056,0.003156,0,0,0.008056,no
0.008056,0.003156,0.125,0,0.008056,yes
0.008056,0.003156,0,0,0.008056,no
0.001084,0.000435,0,0,0.001084,no
0.00914,0.004026,0,0,0.00914,no
0.00914,0.004026,0,0,0.00914,no
0.00914,0.004026,0,0,0.00914,no
0.00914,0.004026,0.03125,0,0.00914,no
0.00914,0.004026,0,0,0.00914,no
0.02866,0.000762,0,0,0.02866,no
0.003873,0.000218,0,0,0.003873,no
0.002324,0.000762,0,0,0.002324,no
0.001394,0.000218,0,0,0.001394,no
0.002789,0.000762,0,0,0.002789,no
0.001239,0.000218,0,0,0.001239,no
0.000775,0.000326,0,0,0.000775,no
0.000775,0.000326,0.03125,0,0.000775,no
0.025252,0.015452,0.09375,0,0.025252,no
0.025252,0.015452,0.125,0.333333,0.025252,no
0.025252,0.015452,0,0,0.025252,no
0.025252,0.015452,0,0,0.025252,no
0.025252,0.015452,0,0,0.025252,no
0.025252,0.015452,0,0,0.025252,no
0.025252,0.015452,0,0,0.025252,no
0.025252,0.015452,0,0,0.025252,no
0.025252,0.015452,0.03125,0,0.025252,no
0.025252,0.015452,0.03125,0,0.025252,no
0.025252,0.015452,0,0,0.025252,no
0.025252,0.015452,0,0,0.025252,no
0.025252,0.015452,0,0,0.025252,no
0.025252,0.015452,0,0,0.025252,no
0.025252,0.015452,0,0,0.025252,no
0.025252,0.015452,0,0,0.025252,no
0.025252,0.015452,0,0,0.025252,no
0.025252,0.015452,0,0,0.025252,no
0.025252,0.015452,0,0,0.025252,no
0.025252,0.015452,0.03125,0,0.025252,no
0.00093,0.000326,0,0,0.00093,no
0.002014,0.000435,0,0,0.002014,no
0.00093,0.000326,0,0,0.00093,no
0.024787,0.017301,0,0,0.024787,no
0.024787,0.017301,0.03125,0,0.024787,no
0.024787,0.017301,0.03125,0,0.024787,no
0.024787,0.017301,0.03125,0,0.024787,no
0.024787,0.017301,0.03125,0,0.024787,no
0.024787,0.017301,0.125,0,0.024787,no
0.024787,0.017301,0.25,0.333333,0.024787,no
0.024787,0.017301,0,0,0.024787,no
0.024787,0.017301,0,0,0.024787,no
0.024787,0.017301,0.03125,0,0.024787,no
0.024787,0.017301,0,0,0.024787,no
0.024787,0.017301,0,0,0.024787,no
0.024787,0.017301,0,0,0.024787,no
0.024787,0.017301,0.03125,0,0.024787,no
0.024787,0.017301,0,0,0.024787,no
0.024787,0.017301,0,0,0.024787,no
0.024787,0.017301,0,0,0.024787,no
0.024787,0.017301,0,0,0.024787,no
0.024787,0.017301,0,0,0.024787,no
0.007281,0.002067,0,0,0.007281,no
0.007281,0.002067,0,0,0.007281,no
0.007281,0.002067,0,0,0.007281,no
0.007281,0.002067,0,0,0.007281,no
0.008521,0.002503,0,0,0.007281,no
0.025097,0.000544,0,0,0.023857,no
0.004648,0.000762,0,0,0.004648,no
0.001549,0.000218,0,0,0.001549,no
0.002169,0.000762,0,0,0.002169,no
0.002014,0.000218,0,0,0.002014,no
0.001394,0.000326,0,0,0.001394,no
0.001084,0.000544,0.09375,0,0.001084,no
0.024167,0.01469,0.0625,0,0.024167,no
0.024167,0.01469,0.09375,0,0.024167,no
0.024167,0.01469,0,0,0.024167,no
0.024167,0.01469,0,0,0.024167,no
0.024167,0.01469,0,0,0.024167,no
0.024167,0.01469,0,0,0.024167,no
0.024167,0.01469,0,0,0.024167,no
0.024167,0.01469,0,0,0.024167,no
0.024167,0.01469,0.03125,0,0.024167,no
0.024167,0.01469,0.03125,0,0.024167,no
0.024167,0.01469,0,0,0.024167,no
0.024167,0.01469,0,0,0.024167,no
0.024167,0.01469,0,0,0.024167,no
0.024167,0.01469,0,0,0.024167,no
0.024167,0.01469,0,0,0.024167,no
0.024167,0.01469,0,0,0.024167,no
0.024167,0.01469,0,0,0.024167,no
0.024167,0.01469,0,0,0.024167,no
0.024167,0.01469,0,0,0.024167,no
0.024167,0.01469,0.03125,0,0.024167,no
0.00093,0.000326,0,0,0.00093,no
0.001859,0.000435,0,0,0.001859,no
0.023857,0.016649,0,0,0.023857,no
0.023857,0.016649,0,0,0.023857,no
0.023857,0.016649,0.03125,0,0.023857,no
0.023857,0.016649,0.03125,0,0.023857,no
0.023857,0.016649,0.03125,0,0.023857,no
0.023857,0.016649,0.03125,0,0.023857,no
0.023857,0.016649,0.09375,0,0.023857,no
0.023857,0.016649,0.21875,0.333333,0.023857,no
0.023857,0.016649,0,0,0.023857,no
0.023857,0.016649,0,0,0.023857,no
0.023857,0.016649,0.03125,0,0.023857,no
0.023857,0.016649,0,0,0.023857,no
0.023857,0.016649,0,0,0.023857,no
0.023857,0.016649,0,0,0.023857,no
0.023857,0.016649,0.03125,0,0.023857,no
0.023857,0.016649,0,0,0.023857,no
0.023857,0.016649,0.03125,0,0.023857,no
0.023857,0.016649,0,0,0.023857,no
0.003873,0.000979,0,0,0.003873,no
0.007901,0.001306,0,0,0.007901,no
0.007901,0.001306,0,0,0.007901,no
0.007901,0.001306,0,0,0.007901,no
0.00914,0.001741,0,0,0.007901,no
0.022463,0.000544,0,0,0.021224,no
0.004648,0.000762,0,0,0.004648,no
0.001549,0.000218,0,0,0.001549,no
0.001394,0.000218,0,0,0.001394,no
0.002169,0.000326,0.03125,0,0.002169,no
0.002169,0.000871,0.03125,0,0.002169,no
0.021689,0.012949,0.0625,0,0.021689,no
0.021689,0.012949,0,0,0.021689,no
0.021689,0.012949,0,0,0.021689,no
0.021689,0.012949,0,0,0.021689,no
0.021689,0.012949,0,0,0.021689,no
0.021689,0.012949,0,0,0.021689,no
0.021689,0.012949,0,0,0.021689,no
0.021689,0.012949,0.03125,0,0.021689,no
0.021689,0.012949,0.03125,0,0.021689,no
0.021689,0.012949,0,0,0.021689,no
0.021689,0.012949,0,0,0.021689,no
0.021689,0.012949,0,0,0.021689,no
0.021689,0.012949,0,0,0.021689,no
0.021689,0.012949,0,0,0.021689,no
0.021689,0.012949,0,0,0.021689,no
0.021689,0.012949,0,0,0.021689,no
0.021689,0.012949,0,0,0.021689,no
0.021689,0.012949,0,0,0.021689,no
0.021689,0.012949,0.03125,0,0.021689,no
0.00093,0.000326,0,0,0.00093,no
0.017041,0.011861,0,0,0.017041,no
0.017041,0.011861,0,0,0.017041,no
0.017041,0.011861,0,0,0.017041,no
0.017041,0.011861,0.03125,0,0.017041,no
0.017041,0.011861,0.03125,0,0.017041,no
0.017041,0.011861,0.03125,0,0.017041,no
0.017041,0.011861,0.03125,0,0.017041,no
0.017041,0.011861,0.0625,0,0.017041,no
0.017041,0.011861,0.15625,0.333333,0.017041,no
0.017041,0.011861,0,0,0.017041,no
0.017041,0.011861,0,0,0.017041,no
0.017041,0.011861,0.03125,0,0.017041,no
0.017041,0.011861,0,0,0.017041,no
0.007281,0.002067,0,0,0.007281,no
0.007281,0.002067,0,0,0.007281,no
0.007281,0.002067,0,0,0.007281,no
0.007281,0.002067,0,0,0.007281,no
0.008521,0.002503,0,0,0.007281,no
0.022463,0.000544,0,0,0.021224,no
0.004648,0.000762,0,0,0.004648,no
0.001549,0.000218,0,0,0.001549,no
0.001394,0.000218,0,0,0.001394,no
0.002169,0.000326,0.03125,0,0.002169,no
0.002169,0.000871,0.03125,0,0.002169,no
0.021689,0.012949,0.0625,0,0.021689,no
0.021689,0.012949,0,0,0.021689,no
0.021689,0.012949,0,0,0.021689,no
0.021689,0.012949,0,0,0.021689,no
0.021689,0.012949,0,0,0.021689,no
0.021689,0.012949,0,0,0.021689,no
0.021689,0.012949,0,0,0.021689,no
0.021689,0.012949,0.03125,0,0.021689,no
0.021689,0.012949,0.03125,0,0.021689,no
0.021689,0.012949,0,0,0.021689,no
0.021689,0.012949,0,0,0.021689,no
0.021689,0.012949,0,0,0.021689,no
0.021689,0.012949,0,0,0.021689,no
0.021689,0.012949,0,0,0.021689,no
0.021689,0.012949,0,0,0.021689,no
0.021689,0.012949,0,0,0.021689,no
0.021689,0.012949,0,0,0.021689,no
0.021689,0.012949,0,0,0.021689,no
0.021689,0.012949,0.03125,0,0.021689,no
0.00093,0.000326,0,0,0.00093,no
0.017041,0.011861,0,0,0.017041,no
0.017041,0.011861,0,0,0.017041,no
0.017041,0.011861,0,0,0.017041,no
0.017041,0.011861,0.03125,0,0.017041,no
0.017041,0.011861,0.03125,0,0.017041,no
0.017041,0.011861,0.03125,0,0.017041,no
0.017041,0.011861,0.03125,0,0.017041,no
0.017041,0.011861,0.0625,0,0.017041,no
0.017041,0.011861,0.15625,0.333333,0.017041,no
0.017041,0.011861,0,0,0.017041,no
0.017041,0.011861,0,0,0.017041,no
0.017041,0.011861,0.03125,0,0.017041,no
0.017041,0.011861,0,0,0.017041,no
0.007281,0.002067,0,0,0.007281,no
0.007281,0.002067,0,0,0.007281,no
0.007281,0.002067,0,0,0.007281,no
0.007281,0.002067,0,0,0.007281,no
0.008521,0.002503,0,0,0.007281,no
0.022463,0.000544,0,0,0.021224,no
0.004648,0.000762,0,0,0.004648,no
0.001549,0.000218,0,0,0.001549,no
0.001394,0.000218,0,0,0.001394,no
0.002169,0.000326,0.03125,0,0.002169,no
0.002169,0.000871,0.03125,0,0.002169,no
0.021689,0.012949,0.0625,0,0.021689,no
0.021689,0.012949,0,0,0.021689,no
0.021689,0.012949,0,0,0.021689,no
0.021689,0.012949,0,0,0.021689,no
0.021689,0.012949,0,0,0.021689,no
0.021689,0.012949,0,0,0.021689,no
0.021689,0.012949,0,0,0.021689,no
0.021689,0.012949,0.03125,0,0.021689,no
0.021689,0.012949,0.03125,0,0.021689,no
0.021689,0.012949,0,0,0.021689,no
0.021689,0.012949,0,0,0.021689,no
0.021689,0.012949,0,0,0.021689,no
0.021689,0.012949,0,0,0.021689,no
0.021689,0.012949,0,0,0.021689,no
0.021689,0.012949,0,0,0.021689,no
0.021689,0.012949,0,0,0.021689,no
0.021689,0.012949,0,0,0.021689,no
0.021689,0.012949,0,0,0.021689,no
0.021689,0.012949,0.03125,0,0.021689,no
0.00093,0.000326,0,0,0.00093,no
0.017041,0.011861,0,0,0.017041,no
0.017041,0.011861,0,0,0.017041,no
0.017041,0.011861,0,0,0.017041,no
0.017041,0.011861,0.03125,0,0.017041,no
0.017041,0.011861,0.03125,0,0.017041,no
0.017041,0.011861,0.03125,0,0.017041,no
0.017041,0.011861,0.03125,0,0.017041,no
0.017041,0.011861,0.0625,0,0.017041,no
0.017041,0.011861,0.15625,0.333333,0.017041,no
0.017041,0.011861,0,0,0.017041,no
0.017041,0.011861,0,0,0.017041,no
0.017041,0.011861,0.03125,0,0.017041,no
0.017041,0.011861,0,0,0.017041,no
0.007281,0.002067,0,0,0.007281,no
0.007281,0.002067,0,0,0.007281,no
0.007281,0.002067,0,0,0.007281,no
0.007281,0.002067,0,0,0.007281,no
0.008521,0.002503,0,0,0.007281,no
0.036716,0.000544,0,0,0.035476,no
0.004648,0.000762,0,0,0.004648,no
0.001549,0.000218,0,0,0.001549,no
0.002169,0.000762,0,0,0.002169,no
0.002014,0.000218,0,0,0.002014,no
0.002014,0.000762,0,0,0.002014,no
0.00062,0.000218,0,0,0.00062,no
0.001394,0.000762,0,0,0.001394,no
0.00062,0.000218,0,0,0.00062,no
0.001394,0.000762,0,0,0.001394,no
0.00062,0.000218,0,0,0.00062,no
0.001394,0.000762,0,0,0.001394,no
0.034082,0.021654,0,0,0.034082,no
0.034082,0.021654,0,0,0.034082,no
0.034082,0.021654,0,0,0.034082,no
0.034082,0.021654,0,0,0.034082,no
0.034082,0.021654,0.15625,0,0.034082,no
0.034082,0.021654,0.21875,0.333333,0.034082,no
0.034082,0.021654,0.25,0.333333,0.034082,no
0.034082,0.021654,0,0,0.034082,no
0.034082,0.021654,0,0,0.034082,no
0.034082,0.021654,0,0,0.034082,no
0.034082,0.021654,0,0,0.034082,no
0.034082,0.021654,0,0,0.034082,no
0.034082,0.021654,0,0,0.034082,no
0.034082,0.021654,0.03125,0,0.034082,no
0.034082,0.021654,0.03125,0,0.034082,no
0.034082,0.021654,0,0,0.034082,no
0.034082,0.021654,0,0,0.034082,no
0.034082,0.021654,0,0,0.034082,no
0.034082,0.021654,0,0,0.034082,no
0.034082,0.021654,0,0,0.034082,no
0.034082,0.021654,0,0,0.034082,no
0.034082,0.021654,0,0,0.034082,no
0.034082,0.021654,0,0,0.034082,no
0.034082,0.021654,0,0,0.034082,no
0.034082,0.021654,0.03125,0,0.034082,no
0.001859,0.000326,0,0,0.001859,no
0.002014,0.000435,0,0,0.002014,no
0.00093,0.000326,0,0,0.00093,no
0.00093,0.000326,0,0,0.00093,no
0.002014,0.000544,0.03125,0,0.002014,no
0.001704,0.000871,0.03125,0,0.001704,no
0.001859,0.000979,0.03125,0,0.001859,no
0.041828,0.029271,0.03125,0,0.041828,no
0.041828,0.029271,0.25,0.333333,0.041828,no
0.041828,0.029271,0.4375,0.666667,0.041828,no
0.041828,0.029271,0,0,0.041828,no
0.041828,0.029271,0,0,0.041828,no
0.041828,0.029271,0.03125,0,0.041828,no
0.041828,0.029271,0,0,0.041828,no
0.041828,0.029271,0,0,0.041828,no
0.041828,0.029271,0,0,0.041828,no
0.041828,0.029271,0.03125,0,0.041828,no
0.041828,0.029271,0,0,0.041828,no
0.041828,0.029271,0,0,0.041828,no
0.041828,0.029271,0,0,0.041828,no
0.041828,0.029271,0,0,0.041828,no
0.041828,0.029271,0,0,0.041828,no
0.041828,0.029271,0,0,0.041828,no
0.041828,0.029271,0,0,0.041828,no
0.041828,0.029271,0.03125,0,0.041828,no
0.041828,0.029271,0,0,0.041828,no
0.041828,0.029271,0,0,0.041828,no
0.041828,0.029271,0,0,0.041828,no
0.041828,0.029271,0.03125,0,0.041828,no
0.041828,0.029271,0,0,0.041828,no
0.041828,0.029271,0.03125,0,0.041828,no
0.041828,0.029271,0,0,0.041828,no
0.041828,0.029271,0,0,0.041828,no
0.041828,0.029271,0,0,0.041828,no
0.041828,0.029271,0.03125,0,0.041828,no
0.041828,0.029271,0,0,0.041828,no
0.041828,0.029271,0,0,0.041828,no
0.041828,0.029271,0,0,0.041828,no
0.041828,0.029271,0.03125,0,0.041828,no
0.041828,0.029271,0,0,0.041828,no
0.004493,0.000979,0,0,0.004493,no
0.009915,0.000544,0,0,0.009915,no
0.009915,0.000544,0,0,0.009915,no
0.002943,0.000326,0,0,0.002943,no
0.014098,0.000653,0,0,0.012858,no
0.022773,0.000544,0,0,0.021534,no
0.004648,0.000762,0,0,0.004648,no
0.001549,0.000218,0,0,0.001549,no
0.001549,0.000326,0,0,0.001549,no
0.002324,0.000435,0.0625,0,0.002324,no
0.002169,0.000871,0.03125,0,0.002169,no
0.021689,0.012949,0.0625,0,0.021689,no
0.021689,0.012949,0,0,0.021689,no
0.021689,0.012949,0,0,0.021689,no
0.021689,0.012949,0,0,0.021689,no
0.021689,0.012949,0,0,0.021689,no
0.021689,0.012949,0,0,0.021689,no
0.021689,0.012949,0,0,0.021689,no
0.021689,0.012949,0.03125,0,0.021689,no
0.021689,0.012949,0.03125,0,0.021689,no
0.021689,0.012949,0,0,0.021689,no
0.021689,0.012949,0,0,0.021689,no
0.021689,0.012949,0,0,0.021689,no
0.021689,0.012949,0,0,0.021689,no
0.021689,0.012949,0,0,0.021689,no
0.021689,0.012949,0,0,0.021689,no
0.021689,0.012949,0,0,0.021689,no
0.021689,0.012949,0,0,0.021689,no
0.021689,0.012949,0,0,0.021689,no
0.021689,0.012949,0.03125,0,0.021689,no
0.001704,0.000326,0,0,0.001704,no
0.020294,0.014146,0,0,0.020294,no
0.020294,0.014146,0,0,0.020294,no
0.020294,0.014146,0,0,0.020294,no
0.020294,0.014146,0.03125,0,0.020294,no
0.020294,0.014146,0.03125,0,0.020294,no
0.020294,0.014146,0.03125,0,0.020294,no
0.020294,0.014146,0.03125,0,0.020294,no
0.020294,0.014146,0.0625,0,0.020294,no
0.020294,0.014146,0.1875,0.333333,0.020294,no
0.020294,0.014146,0,0,0.020294,no
0.020294,0.014146,0,0,0.020294,no
0.020294,0.014146,0.03125,0,0.020294,no
0.020294,0.014146,0,0,0.020294,no
0.020294,0.014146,0.03125,0,0.020294,no
0.020294,0.014146,0,0,0.020294,no
0.003873,0.000979,0,0,0.003873,no
0.007901,0.001306,0,0,0.007901,no
0.007901,0.001306,0,0,0.007901,no
0.007901,0.001306,0,0,0.007901,no
0.00914,0.001741,0,0,0.007901,no
0.025252,0.000544,0,0,0.024012,no
0.004648,0.000762,0,0,0.004648,no
0.001549,0.000218,0,0,0.001549,no
0.002169,0.000762,0,0,0.002169,no
0.002014,0.000218,0,0,0.002014,no
0.001394,0.000326,0,0,0.001394,no
0.001239,0.000653,0.09375,0,0.001239,no
0.024167,0.01469,0.0625,0,0.024167,no
0.024167,0.01469,0.09375,0,0.024167,no
0.024167,0.01469,0,0,0.024167,no
0.024167,0.01469,0,0,0.024167,no
0.024167,0.01469,0,0,0.024167,no
0.024167,0.01469,0,0,0.024167,no
0.024167,0.01469,0,0,0.024167,no
0.024167,0.01469,0,0,0.024167,no
0.024167,0.01469,0.03125,0,0.024167,no
0.024167,0.01469,0.03125,0,0.024167,no
0.024167,0.01469,0,0,0.024167,no
0.024167,0.01469,0,0,0.024167,no
0.024167,0.01469,0,0,0.024167,no
0.024167,0.01469,0,0,0.024167,no
0.024167,0.01469,0,0,0.024167,no
0.024167,0.01469,0,0,0.024167,no
0.024167,0.01469,0,0,0.024167,no
0.024167,0.01469,0,0,0.024167,no
0.024167,0.01469,0,0,0.024167,no
0.024167,0.01469,0.03125,0,0.024167,no
0.00093,0.000326,0,0,0.00093,no
0.001859,0.000435,0,0,0.001859,no
0.023393,0.016322,0,0,0.023393,no
0.023393,0.016322,0,0,0.023393,no
0.023393,0.016322,0.03125,0,0.023393,no
0.023393,0.016322,0.03125,0,0.023393,no
0.023393,0.016322,0.03125,0,0.023393,no
0.023393,0.016322,0.03125,0,0.023393,no
0.023393,0.016322,0.09375,0,0.023393,no
0.023393,0.016322,0.21875,0.333333,0.023393,no
0.023393,0.016322,0,0,0.023393,no
0.023393,0.016322,0,0,0.023393,no
0.023393,0.016322,0,0,0.023393,no
0.023393,0.016322,0,0,0.023393,no
0.023393,0.016322,0,0,0.023393,no
0.023393,0.016322,0,0,0.023393,no
0.023393,0.016322,0.03125,0,0.023393,no
0.023393,0.016322,0,0,0.023393,no
0.023393,0.016322,0.03125,0,0.023393,no
0.023393,0.016322,0,0,0.023393,no
0.003873,0.000979,0,0,0.003873,no
0.007901,0.001306,0,0,0.007901,no
0.007901,0.001306,0,0,0.007901,no
0.007901,0.001306,0,0,0.007901,no
0.00914,0.001741,0,0,0.007901,no
0.023548,0.000544,0,0,0.022308,no
0.004648,0.000762,0,0,0.004648,no
0.001549,0.000218,0,0,0.001549,no
0.001394,0.000218,0,0,0.001394,no
0.000775,0.000218,0,0,0.000775,no
0.002479,0.000544,0.03125,0,0.002479,no
0.002634,0.000871,0,0,0.002634,no
0.021689,0.012949,0.03125,0,0.021689,no
0.021689,0.012949,0,0,0.021689,no
0.021689,0.012949,0,0,0.021689,no
0.021689,0.012949,0,0,0.021689,no
0.021689,0.012949,0,0,0.021689,no
0.021689,0.012949,0,0,0.021689,no
0.021689,0.012949,0,0,0.021689,no
0.021689,0.012949,0.03125,0,0.021689,no
0.021689,0.012949,0.03125,0,0.021689,no
0.021689,0.012949,0,0,0.021689,no
0.021689,0.012949,0,0,0.021689,no
0.021689,0.012949,0,0,0.021689,no
0.021689,0.012949,0,0,0.021689,no
0.021689,0.012949,0,0,0.021689,no
0.021689,0.012949,0,0,0.021689,no
0.021689,0.012949,0,0,0.021689,no
0.021689,0.012949,0,0,0.021689,no
0.021689,0.012949,0,0,0.021689,no
0.021689,0.012949,0.03125,0,0.021689,no
0.001239,0.000326,0,0,0.001239,no
0.023083,0.016104,0,0,0.023083,no
0.023083,0.016104,0,0,0.023083,no
0.023083,0.016104,0,0,0.023083,no
0.023083,0.016104,0.03125,0,0.023083,no
0.023083,0.016104,0.03125,0,0.023083,no
0.023083,0.016104,0.0625,0,0.023083,no
0.023083,0.016104,0.03125,0,0.023083,no
0.023083,0.016104,0.09375,0,0.023083,no
0.023083,0.016104,0.15625,0.333333,0.023083,no
0.023083,0.016104,0,0,0.023083,no
0.023083,0.016104,0,0,0.023083,no
0.023083,0.016104,0,0,0.023083,no
0.023083,0.016104,0.03125,0,0.023083,no
0.023083,0.016104,0,0,0.023083,no
0.023083,0.016104,0.0625,0,0.023083,no
0.023083,0.016104,0.03125,0,0.023083,no
0.023083,0.016104,0.03125,0,0.023083,no
0.023083,0.016104,0,0,0.023083,no
0.021069,0.007399,0,0,0.021069,no
0.059799,0.021001,0,0.333333,0.03873,no
0.03873,0.013602,0,0,0.03873,no
0,0,0,0,0,no
0,0,0,0,0,no
0,0,0.125,0.333333,0,no
0,0,0,0,0,no
0,0,0,0,0,no
0.00031,0.000109,0.125,0,0.00031,no
0,0,0.0625,0.333333,0,no
0,0,0,0,0,no
0,0,0,0,0,no
0,0,0,0,0,no
0,0,0,0,0,no
0,0,0,0,0,no
0.004648,0.001632,0,0,0.004648,no
0.004648,0.001632,0,0,0.004648,no
0.004648,0.001632,0,0,0.004648,no
0.003408,0.001197,0.09375,0,0.00093,yes
0.002789,0.000762,0.03125,0,0.001549,yes
0.003098,0.001306,0,0,0.001239,no
0.001549,0.001088,0,0,0.001859,no
0.003718,0.002612,0.03125,0.333333,0.002169,yes
0.001549,0.000544,0,0.333333,0.00093,no
0.00093,0.000326,0,0,0.00093,no
0,0,0,0,0,no
0.001239,0.000435,0.03125,0,0.00062,no
0.005577,0.001959,0.03125,0.333333,0.001239,yes
0.00093,0.000218,0,0,0.00093,no
0.000775,0.000544,0,0,0.00093,no
0,0,0,0,0,no
0.003408,0.001197,0,0,0.001239,no
0.002789,0.000979,0,0,0.002789,no
0.006197,0.002176,0.03125,0.333333,0.002169,no
0.001239,0.000435,0,0,0.001239,no
0,0,0,0,0,no
0,0,0,0,0,no
0,0,0,0,0,no
0,0,0,0,0,no
0,0,0,0,0,no
0,0,0.03125,0,0,no
0,0,0.03125,0,0,no
0,0,0.03125,0,0,no
0,0,0,0,0,no
0,0,0,0,0,no
0,0,0,0,0,no
0,0,0,0,0,no
0,0,0,0,0,no
0,0,0,0,0,no
0,0,0,0,0,no
0,0,0,0,0,no
0,0,0,0,0,no
0,0,0,0,0,no
0,0,0,0,0,no
0,0,0.03125,0,0,no
0,0,0,0,0,no
0,0,0,0,0,no
0,0,0,0,0,no
0,0,0,0,0,no
0,0,0.03125,0,0,no
0,0,0,0,0,no
0,0,0,0,0,no
0,0,0.0625,0,0,no
0,0,0,0,0,no
0,0,0,0,0,no
0,0,0,0,0,no
0,0,0,0,0,no
0,0,0,0,0,no
0,0,0,0,0,no
0,0,0,0,0,no
0,0,0,0,0,no
0.00031,0.000109,0.125,0.333333,0.00031,no
0.00031,0.000109,0,0,0.00031,yes
0,0,0,0,0,no
0,0,0,0,0,no
0,0,0,0,0,no
0,0,0,0,0,no
0,0,0,0,0,no
0,0,0,0,0,no
0,0,0,0,0,no
0,0,0.0625,0,0,no
0,0,0.0625,0,0,no
0,0,0,0,0,no
0,0,0,0,0,no
0,0,0,0,0,no
0,0,0,0,0,no
0,0,0,0,0,no
0,0,0,0,0,no
0,0,0,0,0,no
0,0,0.0625,0,0,no
0,0,0.03125,0,0,no
0,0,0,0,0,no
0,0,0,0,0,no
0,0,0,0,0,no
0,0,0,0,0,no
0,0,0,0,0,no
0.00031,0.000109,0,0.333333,0.00031,no
0,0,0,0,0,yes
0,0,0,0,0,no
0,0,0,0,0,no
0,0,0.03125,0,0,no
0.00031,0.000109,0,0.333333,0.00031,no
0,0,0.03125,0,0,no
0,0,0,0,0,no
0,0,0.03125,0,0,yes
0,0,0,0,0,no
0,0,0.09375,0.333333,0,no
0,0,0,0,0,no
0,0,0.0625,0,0,yes
0.000465,0.000544,0.125,0.333333,0.00062,no
0,0,0.03125,0,0,no
0.00031,0.000109,0,0,0.00031,no
0.00031,0.000109,0,0.333333,0.00031,no
0,0,0,0,0,no
0,0,0,0,0,no
0,0,0,0,0,no
0,0,0,0,0,no
0,0,0,0,0,no
0,0,0,0,0,no
0.00031,0.000109,0.03125,0,0.00031,no
0.00093,0.000326,0.0625,0.333333,0.00062,no
0,0,0.03125,0,0,no
0,0,0,0,0,no
0.00093,0.000326,0.0625,0,0.00062,no
0.00031,0.000109,0,0,0.00031,no
0,0,0,0,0,no
0,0,0,0,0,no
0.00031,0.000109,0.03125,0,0.00031,no
0,0,0,0,0,no
0,0,0,0,0,no
0.001239,0.000435,0,0,0.001239,no
0,0,0,0,0,no
0.002479,0.000871,0.0625,0.333333,0.001239,no
0,0,0,0,0,no
0,0,0,0,0,no
0,0,0,0,0,no
0,0,0,0,0,no
0.004648,0.001632,0.03125,0,0.003098,no
0.001549,0.000544,0,0,0.001549,no
0.003098,0.001088,0.03125,0,0.003098,no
0,0,0,0,0,no
0,0,0,0,0,no
0,0,0,0,0,no
0,0,0,0,0,no
0.00031,0.000109,0.03125,0,0.00031,no
0,0,0,0,0,no
0,0,0,0,0,no
0,0,0,0,0,no
0.003408,0.001197,0.03125,0.333333,0.001549,yes
0.001549,0.000544,0,0,0.001549,no
0.001549,0.000544,0,0,0.001549,yes
0.00031,0.000109,0,0.333333,0.00031,no
0,0,0.03125,0,0,no
0.002169,0.000762,0.125,0.333333,0.00062,yes
0.00031,0.000109,0,0,0.00031,no
0.001549,0.000544,0.0625,0.333333,0.00062,yes
0.00031,0.000109,0,0,0.00031,no
0,0,0.03125,0.333333,0,yes
0,0,0,0,0,no
0,0,0,0,0,yes
0.00062,0.000326,0.09375,0.333333,0.00062,no
0,0,0.03125,0,0,no
0.00031,0.000218,0,0,0.00031,no
0.000826,0.001415,0.09375,0.333333,0.001084,no
0.000697,0.000871,0.03125,0,0.001084,no
0,0,0.0625,0,0,no
0,0,0,0,0,no
0.00031,0.000109,0.0625,0,0.00031,no
0.000775,0.000653,0.21875,0.333333,0.00031,yes
0.00031,0.000109,0.09375,0.333333,0.00031,no
0,0,0,0,0,no
0,0,0.0625,0.333333,0,yes
0,0,0,0,0,no
0,0,0,0,0,no
0,0,0.125,0.333333,0,yes
0,0,0,0,0,no
0.00031,0.000109,0.03125,0,0.00031,no
0.00031,0.000109,0,0,0.00031,no
0,0,0.0625,0.333333,0,no
0,0,0.03125,0,0,no
0,0,0.09375,0,0,no
0,0,0.0625,0,0,no
0,0,0,0,0,no
0,0,0.03125,0,0,no
0.00031,0.000109,0.0625,0.333333,0.00031,no
0,0,0,0,0,no
0,0,0,0,0,no
0.00031,0.000109,0,0.333333,0.00031,no
0,0,0,0,0,no
0,0,0.03125,0,0,yes
0.006816,0.002394,0.28125,0.333333,0.004648,no
0.004648,0.001632,0.03125,0,0.004648,no
0.001239,0.000435,0.1875,0.333333,0.00031,no
0.00031,0.000109,0.0625,0.333333,0.00031,no
0,0,0,0,0,no
0,0,0,0,0,no
0,0,0.09375,0.333333,0,no
0,0,0.03125,0,0,no
0,0,0,0,0,no
0,0,0,0,0,no
0.004183,0.002938,0.125,0.333333,0.002479,yes
0.004028,0.002829,0.0625,0.333333,0.002479,yes
0,0,0,0,0,no
0,0,0,0,0,no
0,0,0,0,0,no
0,0,0,0,0,no
0,0,0,0,0,no
0.004957,0.001741,0.125,0.333333,0.004648,no
0.004957,0.001741,0.09375,0.666667,0.004648,no
0.004648,0.001632,0.03125,0,0.004648,no
0.000465,0.000326,0.125,0.333333,0.00031,no
0.010225,0.003591,0.15625,0.333333,0.003408,no
0.010225,0.003591,0.15625,0.333333,0.003408,no
0.009915,0.003482,0.09375,0.333333,0.003408,no
0.010534,0.0037,0.09375,0.333333,0.002169,no
0.009915,0.003482,0.09375,0.333333,0.002169,no
0.00031,0.000109,0.03125,0,0.00031,no
0.00031,0.000109,0.03125,0,0.00031,no
0,0,0,0,0,no
0,0,0,0,0,no
0,0,0,0,0,no
0,0,0.09375,0,0,yes
0,0,0,0,0,no
0,0,0,0,0,no
0,0,0,0,0,no
0,0,0,0,0,no
0,0,0.03125,0,0,no
0,0,0.21875,0,0,no
0.00031,0.000109,0,0,0.00031,no
0,0,0,0,0,no
0,0,0,0,0,no
0,0,0.03125,0,0,no
0,0,0.09375,0,0,no
0,0,0.03125,0,0,no
0,0,0,0,0,no
0,0,0.03125,0,0,no
0,0,0,0,0,no
0,0,0.03125,0,0,yes
0,0,0,0,0,no
0,0,0.09375,0,0,no
0,0,0.0625,0,0,no
0,0,0.0625,0.333333,0,no
0,0,0,0,0,no
0,0,0.1875,0.333333,0,no
0.00031,0.000109,0.03125,0,0.00031,yes
0,0,0,0,0,no
0.00031,0.000109,0,0,0.00031,no
0.00031,0.000109,0,0,0.00031,no
0,0,0,0,0,yes
0.00062,0.000218,0.34375,1,0.00031,yes
0,0,0,0,0,no
0.00031,0.000109,0.09375,0.333333,0.00031,yes
0,0,0.125,0,0,no
0,0,0,0,0,no
0,0,0.03125,0,0,no
0,0,0,0,0,no
0,0,0.09375,0,0,no
0,0,0,0,0,no
0,0,0,0,0,no
0,0,0,0,0,no
0,0,0,0,0,no
0,0,0,0,0,no
0,0,0,0,0,no
0,0,0,0,0,no
0,0,0,0,0,no
0,0,0,0,0,no
0,0,0,0,0,no
0,0,0,0,0,no
0,0,0,0,0,no
0.00031,0.000109,0,0.333333,0.00031,no
0,0,0,0,0,no
0,0,0,0,0,no
0,0,0,0,0,no
0,0,0,0,0,no
0,0,0,0,0,no
0,0,0,0,0,no
0,0,0,0,0,yes
0,0,0,0,0,no
0,0,0,0,0,no
0,0,0,0,0,no
0,0,0,0,0,no
0,0,0,0,0,no
0,0,0,0,0,no
0.00031,0.000109,0,0,0.00031,no
0.00031,0.000109,0.03125,0,0.00031,no
0,0,0,0,0,no
0,0,0,0,0,no
0,0,0,0,0,no
0,0,0.0625,0,0,no
0,0,0,0,0,no
0,0,0.03125,0.333333,0,no
0,0,0.125,0.333333,0,no
0,0,0,0,0,no
0.00062,0.000218,0.0625,0.333333,0.00062,no
0,0,0,0,0,no
0,0,0.03125,0,0,no
0,0,0.03125,0,0,no
0,0,0,0,0,no
0,0,0,0,0,no
0.00062,0.000218,0.0625,0.333333,0.00031,no
0.00031,0.000109,0.125,0.333333,0.00031,no
0.001549,0.000544,0.09375,0.333333,0.001239,no
0,0,0,0,0,no
0.001239,0.000435,0,0,0.001239,yes
0,0,0,0,0,no
0,0,0,0,0,no
0,0,0,0,0,no
0,0,0,0,0,yes
0,0,0,0,0,no
0.001859,0.000653,0.125,0.333333,0.001239,yes
0,0,0,0,0,no
0,0,0.03125,0,0,yes
0,0,0,0,0,yes
0,0,0,0,0,no
0,0,0,0,0,no
0,0,0,0,0,no
0,0,0,0,0,no
0,0,0,0,0,no
0,0,0,0,0,no
0,0,0,0,0,no
0,0,0,0,0,no
0,0,0,0,0,no
0,0,0,0,0,no
0,0,0,0,0,no
0,0,0,0,0,no
0,0,0,0,0,no
0,0,0,0,0,no
0,0,0.03125,0,0,no
0.00031,0.000109,0.09375,0.333333,0.00031,no
0,0,0.0625,0,0,no
0.00062,0.000218,0.0625,0,0.00031,no
0,0,0,0,0,no
0.00031,0.000109,0,0.333333,0.00031,no
0,0,0,0,0,no
0.00031,0.000109,0,0,0.00031,no
0,0,0,0,0,no
0,0,0,0,0,no
0,0,0,0,0,no
0.00031,0.000109,0,0,0.00031,no
0,0,0,0,0,no
0,0,0.125,0.333333,0,yes
0.00062,0.000218,0,0,0.00062,no
0,0,0,0,0,no
0,0,0,0,0,no
0,0,0.0625,0,0,no
0,0,0,0,0,no
0,0,0.03125,0.333333,0,no
0,0,0,0,0,no
0,0,0,0,0,no
0,0,0,0,0,no
0.001033,0.001088,0.125,0.333333,0.00062,no
0.00062,0.000435,0.03125,0.666667,0.00062,no
0,0,0.03125,0,0,no
0,0,0,0,0,no
0,0,0.09375,0.333333,0,no
0,0,0,0,0,no
0,0,0,0,0,no
0.00031,0.000109,0.0625,0.333333,0.00031,no
0,0,0,0,0,no
0,0,0.03125,0,0,no
0,0,0,0,0,no
0,0,0.03125,0.333333,0,no
0,0,0,0,0,no
0,0,0,0,0,no
0,0,0,0,0,no
0,0,0,0,0,no
0,0,0,0,0,no
0,0,0,0,0,no
0,0,0,0,0,no
0,0,0,0,0,no
0.00031,0.000109,0,0,0.00031,no
0.00031,0.000109,0,0,0.00031,no
0.00031,0.000109,0,0.333333,0.00031,no
0.00031,0.000109,0,0,0.00031,no
0.00031,0.000109,0,0,0.00031,no
0,0,0,0.333333,0,no
0.001498,0.001632,0.3125,0.666667,0.001239,yes
0.001498,0.001632,0.3125,0.666667,0.001239,yes
0.001549,0.001088,0.21875,0.333333,0.001239,yes
0.001084,0.000762,0.09375,0.666667,0.001239,yes
0.00031,0.000109,0.03125,0,0.00031,yes
0.00031,0.000109,0.03125,0,0.00031,yes
0.00031,0.000109,0.03125,0,0.00031,yes
0,0,0.0625,0.333333,0,yes
0,0,0.03125,0,0,yes
0,0,0.03125,0,0,yes
0,0,0,0,0,yes
0.00031,0.000109,0,0,0.00031,yes
0,0,0.03125,0,0,no
0,0,0,0,0,no
0.00031,0.000109,0.03125,0,0.00031,no
0,0,0.09375,0.333333,0,yes
0,0,0,0,0,no
0.00062,0.000218,0.09375,0.333333,0.00031,yes
0,0,0,0,0,yes
0.00062,0.000218,0.0625,0.333333,0.00031,no
0.00031,0.000109,0,0,0.00031,yes
0,0,0,0,0,yes
0,0,0,0,0,no
0,0,0,0,0,no
0.000465,0.000218,0.03125,0,0.00031,yes
0,0,0,0,0,no
0,0,0,0,0,no
0.00031,0.000109,0,0.333333,0.00031,no
0.001859,0.000653,0.1875,0.333333,0.00062,yes
0,0,0,0,0,yes
0.00031,0.000109,0.03125,0.333333,0.00031,yes
0.00031,0.000109,0,0,0.00031,yes
0,0,0,0,0,yes
0.00031,0.000109,0,0.333333,0.00031,no
0.00031,0.000109,0,0.333333,0.00031,no
0.001239,0.000435,0.125,0.333333,0.001239,yes
0,0,0,0.333333,0,no
0,0,0,0,0,no
0,0,0.09375,0.333333,0,yes
0,0,0,0,0,yes
0,0,0.03125,0,0,yes
0,0,0,0,0,no
0,0,0,0,0,no
0,0,0,0,0,yes
0,0,0,0.333333,0,no
0,0,0,0.333333,0,no
0,0,0,0,0,no
0,0,0,0,0,no
0,0,0.03125,0,0,no
0,0,0,0,0,no
0.00031,0.000109,0,0.333333,0.00031,no
0.00031,0.000109,0,0,0.00031,no
0.00031,0.000109,0,0.333333,0.00031,no
0,0,0,0,0,no
0.00031,0.000109,0.03125,0,0.00031,no
0,0,0,0,0,no
0,0,0,0,0,no
0,0,0,0,0,no
0,0,0,0,0,no
0,0,0.03125,0,0,yes
0,0,0,0,0,no
0,0,0,0,0,no
0,0,0,0,0,no
0.00031,0.000109,0,0.333333,0.00031,no
0,0,0,0.333333,0,no
0,0,0,0,0,no
0,0,0,0,0,no
0,0,0,0,0,no
0,0,0,0,0,no
0.00031,0.000109,0,0.333333,0.00031,no
0,0,0,0,0,no
0.00031,0.000109,0,0,0.00031,no
0.002169,0.000762,0.28125,0.333333,0.00062,no
0.001859,0.000653,0.28125,0.333333,0.00062,no
0.001549,0.000544,0.15625,0.666667,0.00062,no
0,0,0.03125,0,0,no
0.005577,0.001959,0.0625,0.666667,0.003408,no
0.004957,0.001741,0.0625,0,0.003408,no
0.006197,0.002176,0.0625,0.666667,0.004957,no
0.005887,0.002067,0.0625,0,0.004957,no
0.00093,0.000326,0.0625,0.333333,0.00031,no
0.00062,0.000218,0.0625,0,0.00031,no
0.00062,0.000218,0,0,0.00062,no
0,0,0,0,0,no
0,0,0,0,0,no
0,0,0.03125,0,0,no
0,0,0,0,0,no
0,0,0,0,0,no
0.001317,0.001415,0.03125,0.333333,0.002014,no
0.00031,0.000109,0.03125,0.333333,0.00031,no
0.00031,0.000109,0,0,0.00031,no
0.00031,0.000109,0,0,0.00031,no
0,0,0,0,0,no
0.002324,0.001306,0,0,0.002014,no
0.002014,0.001197,0,0,0.002014,no
0.002014,0.001197,0,0,0.002014,no
0,0,0,0,0,no
0,0,0,0,0,no
0.00031,0.000109,0,0,0.00031,no
0,0,0,0,0,no
0,0,0,0,0,no
0.00062,0.000218,0,0,0.00062,no
0,0,0,0,0,no
0,0,0,0,0,no
0,0,0,0,0,no
0,0,0,0,0,no
0,0,0,0,0,no
0.00062,0.000218,0.03125,0,0.00062,no
0,0,0,0,0,yes
0,0,0.03125,0,0,no
0.002479,0.000871,0.1875,0.333333,0.001239,no
0.002479,0.000871,0.15625,0,0.001239,yes
0,0,0,0,0,no
0,0,0,0,0,no
0.008985,0.003156,0.09375,0.333333,0.004338,no
0.008675,0.003047,0.09375,0.333333,0.004338,no
0.006042,0.001197,0.03125,0,0.004338,no
0,0,0,0,0,no
0.00062,0.000218,0.0625,0,0.00031,no
0,0,0,0,0,no
0.00031,0.000109,0.03125,0,0.00031,no
0.00031,0.000109,0.03125,0,0.00031,no
0.001239,0.000435,0.21875,0.333333,0.00062,no
0.00093,0.000326,0.21875,0.666667,0.00062,no
0,0,0.03125,0,0,no
0.00062,0.000218,0.15625,0.333333,0.00031,no
0.00062,0.000218,0.15625,0.666667,0.00031,no
0.00031,0.000109,0.03125,0,0.00031,no
0.005577,0.001959,0.125,0.333333,0.003253,no
0.005267,0.00185,0.09375,0,0.003253,no
0,0,0,0,0,no
0.001239,0.000435,0.03125,0,0.001239,no
0.001239,0.000435,0.125,0.333333,0.00062,no
0.001239,0.000435,0.125,0.666667,0.00062,no
0.00062,0.000218,0.03125,0,0.00062,no
0.00062,0.000218,0.03125,0,0.00031,no
0,0,0,0,0,no
0.00093,0.000326,0.03125,0,0.00062,no
0,0,0,0,0,no
0.00093,0.000326,0.03125,0,0.00031,no
0,0,0,0,0,no
0.00093,0.000326,0.03125,0,0.00031,no
0,0,0,0,0,no
0.00062,0.000218,0.03125,0,0.00031,no
0,0,0,0,0,no
0,0,0,0,0,no
0,0,0,0,0,no
0,0,0.03125,0,0,no
0,0,0,0,0,no
0,0,0.03125,0.333333,0,no
0,0,0,0.333333,0,no
0,0,0.03125,0.333333,0,no
0,0,0,0.333333,0,no
0,0,0.03125,0,0,no
0,0,0,0,0,no
0,0,0.03125,0,0,no
0,0,0,0,0,no
0,0,0.03125,0,0,no
0,0,0,0,0,no
0.004028,0.001415,0.0625,0.666667,0.003718,no
0.004028,0.001415,0.0625,0.333333,0.003718,no
0.003718,0.001306,0.03125,0,0.003718,no
0,0,0,0,0,no
0,0,0.03125,0.333333,0,no
0,0,0,0,0,no
0,0,0.03125,0,0,no
0,0,0.0625,0.333333,0,no
0,0,0.03125,0,0,no
0.002479,0.001741,0.0625,0,0.002479,no
0.003021,0.002938,0.125,0.333333,0.00062,no
0,0,0.0625,0,0,no
0.003873,0.001632,0.34375,0.666667,0.002789,no
0,0,0,0,0,no
0.001859,0.000979,0.46875,0.666667,0.00062,no
0,0,0.03125,0,0,no
0.00062,0.000218,0.25,0.333333,0.00031,no
0.00031,0.000109,0,0,0.00031,no
0.00031,0.000109,0,0,0.00031,no
0.002324,0.000544,0.0625,0.666667,0.001394,no
0,0,0.03125,0,0,no
0,0,0,0,0,no
0,0,0,0,0,no
0,0,0,0,0,no
0.001394,0.001197,0.3125,0.666667,0.001394,no
0.00031,0.000109,0.0625,0,0.00031,no
0,0,0,0,0,no
0.001007,0.000979,0.03125,0,0.001084,no
0.005112,0.005876,0.40625,0.666667,0.002479,no
0.001859,0.001306,0,0,0.001859,no
0,0,0.03125,0,0,no
0,0,0.03125,0,0,no
0.00093,0.000326,0.03125,0,0.00062,no
0.001007,0.000653,0.09375,0.666667,0.000775,no
0,0,0.03125,0,0,no
0.005887,0.002067,0.03125,0,0.003408,no
0.006507,0.003373,0,0,0.006507,no
0.011929,0.007073,0.125,0,0.006507,no
0.005422,0.0037,0.03125,0,0.005422,no
0.005422,0.0037,0.03125,0,0.005422,no
0.00062,0.000435,0,0,0.00062,no
0.00062,0.000871,0,0,0.00062,no
0.001782,0.002503,0,0,0.003408,no
0.003408,0.002394,0,0,0.003408,no
0.003408,0.002394,0,0,0.003408,no
0.00062,0.000435,0.03125,0.333333,0.00062,yes
0.001704,0.001197,0.03125,0,0.001704,no
0.003284,0.00272,0.0625,0,0.013633,no
0.00093,0.000653,0,0,0.00093,no
0.004304,0.019478,0.125,0.333333,0.013478,no
0.004648,0.010664,0.03125,0,0.008366,no
0.006429,0.036126,0.34375,0.666667,0.014562,no
0.004988,0.016975,0,0,0.014562,no
0.005453,0.017954,0.03125,0,0.014562,no
0.003989,0.024048,0,0.333333,0.014562,no
0.002181,0.013711,0.15625,0.333333,0.007281,yes
0.002183,0.012731,0.15625,0.333333,0.007281,yes
0.002076,0.006855,0.03125,0,0.007281,yes
0.00519,0.013493,0.0625,0,0.011154,no
0.005732,0.007943,0.125,0,0.011154,no
0.003215,0.008596,0.03125,0,0.011154,no
0.003447,0.008923,0.0625,0,0.011154,yes
0.00062,0.000544,0.125,0.333333,0.00062,no
0.00093,0.000326,0.125,0.333333,0.00062,yes
0.000542,0.000326,0,0,0.00062,no
0.003284,0.00272,0.0625,0,0.013633,no
0.00093,0.000653,0,0,0.00093,no
0.000908,0.00272,0.09375,0.333333,0.001549,no
0.002169,0.002067,0.03125,0,0.002169,no
0.001317,0.001741,0,0,0.002169,no
0.003408,0.005441,0.03125,0,0.006816,no
0.006042,0.003591,0,0,0.006816,no
0.006971,0.003591,0.03125,0,0.006816,no
0,0,0,0,0,yes
0.000155,0.000109,0.03125,0,0.000155,no
0.00062,0.000435,0.03125,0.333333,0.00062,yes
0.000775,0.000544,0,0,0.000775,no
0.000775,0.000544,0.03125,0,0.000775,no
0.00093,0.000979,0.03125,0,0.001394,yes
0,0,0,0,0,no
0,0,0,0,0,no
0,0,0,0,0,no
0.00031,0.000109,0,0,0.00031,no
0.00031,0.000109,0,0,0.00031,no
0.001084,0.001197,0,0,0.001239,no
0.000775,0.001088,0,0,0.001239,no
0.000878,0.001197,0.15625,0,0.00062,no
0.000465,0.000435,0,0,0.00031,no
0.00062,0.000218,0,0,0.00031,no
0.001588,0.003591,0.25,0.333333,0.002943,no
0,0,0,0,0,no
0,0,0,0,0,no
0.003718,0.002612,0,0,0.003718,no
0.003718,0.002612,0,0,0.003718,no
0.003718,0.002612,0,0,0.003718,no
0.003718,0.002612,0,0,0.003718,no
0.003718,0.002612,0,0,0.003718,no
0,0,0,0,0,no
0,0,0,0,0,no
0.000852,0.000653,0,0,0.001239,no
0.001239,0.000871,0,0,0.001239,no
0.00093,0.000326,0.125,0.333333,0.00031,no
0,0,0,0,0,no
0,0,0,0,0,no
0,0,0.0625,0,0,no
0.000542,0.000544,0.375,0.666667,0.000465,no
0,0,0,0,0,no
0,0,0.03125,0,0,no
0,0,0,0,0,no
0,0,0.0625,0,0,no
0,0,0.03125,0,0,no
0.001084,0.000435,0.09375,0.333333,0.00031,no
0,0,0.03125,0,0,no
0,0,0,0,0,no
0,0,0,0,0,no
0,0,0,0,0,no
0.000465,0.000218,0,0,0.000465,no
0.014407,0.009358,0,0,0.014407,no
0.007514,0.009576,0,0,0.014407,no
0.004105,0.010446,0.0625,0.333333,0.014407,no
0.007514,0.009793,0,0,0.014407,no
0.004519,0.016104,0.09375,0.333333,0.014407,no
0.00536,0.007835,0.125,0.333333,0.013633,no
0.005267,0.006311,0.03125,0,0.013633,no
0.002118,0.004244,0.09375,0.333333,0.004338,no
0.002866,0.004026,0,0,0.004338,no
0.001808,0.003591,0.125,0.333333,0.004802,no
0.002556,0.003482,0.03125,0,0.004802,no
0.002556,0.003482,0.03125,0,0.004802,no
0.001743,0.004135,0.1875,0.333333,0.004802,no
0.001317,0.000871,0.0625,0.333333,0.002324,no
0.001317,0.001632,0.03125,0,0.002014,no
0.00031,0.000109,0.03125,0,0.00031,no
0.0071,0.019151,0.25,0.333333,0.018125,no
0.009218,0.012405,0.0625,0,0.018125,yes
0.003641,0.004135,0,0,0.006507,no
0.004454,0.009902,0.21875,0.333333,0.007591,yes
0.003899,0.011425,0.21875,0.333333,0.007591,no
0.000723,0.001523,0,0,0.001704,yes
0,0,0.03125,0,0,no
0,0,0,0,0,no
0.00031,0.000218,0.0625,0,0.000155,no
0.001162,0.001523,0.03125,0,0.001394,no
0.001549,0.000326,0.09375,0.333333,0.001239,no
0,0,0,0,0,no
0,0,0,0,0,no
0.001549,0.001088,0.0625,0,0.001549,no
0.001549,0.001088,0,0,0.001549,no
0.001549,0.001088,0.0625,0,0.001549,no
0.007591,0.004135,0.125,0.333333,0.005887,no
0.005887,0.003808,0.0625,0,0.005887,no
0.007591,0.004897,0,0,0.005887,no
0.001704,0.001088,0.125,0.333333,0.001704,no
0.007901,0.005441,0.125,0.333333,0.007901,no
0.007901,0.005441,0.03125,0,0.007901,no
0.00426,0.005767,0.125,0.333333,0.007901,no
0.004802,0.00642,0.1875,0.333333,0.008521,yes
0.008521,0.005876,0,0,0.008521,no
0.005345,0.007073,0.1875,0.333333,0.005267,no
0.005267,0.003591,0.125,0.333333,0.005267,no
0,0,0,0,0,no
0,0,0.21875,0.333333,0,yes
0,0,0,0,0,no
0,0,0,0,0,yes
0,0,0,0,0,no
0.00031,0.000218,0.25,0.666667,0.000155,no
0.00062,0.000218,0.125,0.333333,0.00093,yes
0,0,0.03125,0,0,no
0,0,0.03125,0,0,no
0,0,0.0625,0,0,no
0,0,0.15625,0.333333,0,yes
0,0,0.0625,0,0,no
0,0,0.03125,0,0,no
0,0,0.03125,0,0,no
0,0,0.09375,0.333333,0,yes
0.019365,0.013602,0,0,0.019365,no
0.019365,0.013602,0.03125,0,0.019365,no
0.019365,0.013602,0.03125,0,0.019365,no
0.019365,0.013602,0,0,0.019365,no
0.019365,0.013602,0.03125,0,0.019365,no
0.019365,0.013602,0,0,0.019365,no
0.019365,0.013602,0,0,0.019365,no
0.019365,0.013602,0,0,0.019365,no
0.019365,0.013602,0,0,0.019365,yes
0.019365,0.013602,0,0,0.019365,no
0.006584,0.016866,0.15625,0.333333,0.019365,yes
0.019365,0.013602,0,0,0.019365,no
0,0,0,0,0,no
0,0,0,0,0,no
0.000775,0.000218,0,0,0.000775,no
0.000465,0.000109,0.03125,0,0.000465,no
0.00031,0.000109,0.03125,0,0.00031,no
0,0,0,0,0,no
0,0,0,0,0,no
0.000775,0.000544,0.03125,0,0.000775,no
0,0,0,0,0,yes
0,0,0,0,0,no
0,0,0,0,0,no
0,0,0,0.333333,0,no
0.00062,0.000218,0.0625,0,0.00031,no
0,0,0,0,0,no
0.006507,0.002176,0.125,0.333333,0.004802,no
0,0,0,0,0,yes
0,0,0,0,0,no
0,0,0,0,0,no
0,0,0,0,0,no
0,0,0.09375,0.333333,0,no
0,0,0,0,0,no
0,0,0,0,0,no
0,0,0,0,0,no
0.001704,0.001197,0,0,0.001704,no
0.001704,0.001197,0,0,0.001704,no
0.001704,0.001197,0,0,0.001704,no
0.00062,0.000218,0.0625,0.333333,0.00062,no
0.001704,0.000979,0.125,0.333333,0.001704,no
0,0,0,0,0,no
0.00031,0.000109,0.03125,0,0.00031,no
0,0,0,0,0,no
0,0,0,0.333333,0,no
0,0,0.03125,0,0,no
0,0,0,0,0,no
0,0,0,0,0,no
0,0,0,0,0,no
0.00093,0.000435,0.125,0,0.00062,no
0,0,0.1875,0.333333,0,no
0.00062,0.000218,0.15625,0.333333,0.00031,no
0,0,0.03125,0,0,no
0,0,0,0,0,no
0,0,0,0,0,no
0.000775,0.000871,0.3125,0.666667,0.00093,yes
0,0,0.0625,0,0,no
0,0,0.0625,0,0,no
0,0,0,0,0,no
0,0,0.21875,0.333333,0,no
0,0,0,0,0,no
0,0,0.03125,0,0,no
0,0,0.03125,0,0,no
0,0,0,0,0,no
0.00031,0.000109,0,0,0.00031,yes
0.00093,0.000435,0,0,0.00093,no
0.00093,0.000435,0,0,0.00093,no
0,0,0,0,0,no
0.00031,0.000326,0,0,0.000465,no
0,0,0,0,0,no
0.001498,0.000653,0,0,0.003718,no
0,0,0,0,0,no
0,0,0,0,0,no
0,0,0,0,0,no
0,0,0.03125,0,0,no
0,0,0,0,0,no
0,0,0,0,0,no
0,0,0,0,0,no
0,0,0,0,0,no
0,0,0.03125,0,0,no
0,0,0.03125,0,0,no
0,0,0.0625,0,0,no
0.002789,0.003808,0.03125,0.333333,0.005267,no
0.001084,0.000109,0.0625,0,0.001084,no
0.001239,0.000109,0.0625,0,0.001239,no
0,0,0,0,0,no
0,0,0,0,0,no
0,0,0.15625,0.333333,0,no
0,0,0.09375,0,0,no
0.00031,0.000109,0.1875,0.333333,0.00031,no
0.00062,0.000218,0.34375,0.666667,0.00031,yes
0,0,0,0,0,no
0.00031,0.000109,0.21875,0.666667,0.00031,no
0.002479,0.003264,0.3125,0.666667,0.002169,no
0,0,0.3125,0.666667,0,no
0.003098,0.00185,0.09375,0.333333,0.002324,no
0.001188,0.002067,0.125,0.333333,0.001549,no
0.002943,0.001959,0.03125,0,0.001549,no
0.001394,0.000871,0.0625,0,0.001394,no
0,0,0.03125,0,0,no
0,0,0.03125,0,0,yes
0,0,0.0625,0,0,no
0.001239,0.001415,0,0.333333,0.001549,no
0.00031,0.000109,0,0,0.00031,no
0,0,0,0,0,no
0.00031,0.000109,0,0,0.00031,no
0,0,0,0,0,no
0,0,0,0,0,no
0,0,0,0,0,no
0.001549,0.001088,0,0,0.001549,no
0.001549,0.001088,0,0,0.001549,no
0.001549,0.001088,0,0,0.001549,no
0,0,0.03125,0,0,no
0,0,0,0,0,no
0,0,0,0,0,no
0,0,0,0,0,no
0,0,0,0,0,no
0,0,0,0,0,no
0,0,0,0,0,no
0,0,0,0,0,no
0.001084,0.001415,0,0,0.002634,no
0.001368,0.003591,0.03125,0,0.002324,no
0.002324,0.001415,0,0,0.002324,no
0.001472,0.001523,0,0,0.002324,no
0.001859,0.001959,0,0,0.002634,yes
0.001472,0.00185,0,0,0.002324,yes
0.00129,0.002067,0,0,0.002324,no
0.002324,0.001415,0,0,0.002324,no
0.000775,0.000218,0,0,0.000465,no
0,0,0.03125,0,0,no
0,0,0,0,0,no
0,0,0,0,0,yes
0,0,0,0,0,yes
0.001859,0.000109,0.03125,0,0.001859,no
0.002169,0.000109,0,0,0.002169,no
0.000775,0.000218,0,0,0.000775,no
0,0,0,0,0,yes
0,0,0,0,0,no
0,0,0,0,0,no
0.00093,0.000653,0,0,0.00093,no
0,0,0.03125,0,0,no
0,0,0,0,0,no
0,0,0,0,0,no
0,0,0,0,0,no
0,0,0,0,0,no
0,0,0.03125,0,0,no
0,0,0.03125,0,0,no
0.001239,0.000653,0.03125,0,0.001239,no
0,0,0,0,0,no
0,0,0,0,0,no
0,0,0,0,0,no
0,0,0,0,0,no
0,0,0,0,0,no
0,0,0,0,0,no
0,0,0.0625,0,0,no
0,0,0,0,0,no
0,0,0,0,0,no
0.00062,0.000218,0,0,0.00062,no
0,0,0,0,0,no
0,0,0.03125,0,0,no
0.00031,0.000109,0,0,0.00031,no
0,0,0,0,0,no
0,0,0.0625,0,0,no
0,0,0,0,0,no
0,0,0,0,0,no
0,0,0,0,0,no
0,0,0,0,0,no
0,0,0,0,0,no
0,0,0,0,0,no
0,0,0,0,0,no
0,0,0,0,0,no
0,0,0,0,0,no
0,0,0,0,0,yes
0,0,0,0,0,no
0,0,0,0,0,no
0,0,0,0,0,no
0,0,0,0,0,no
0,0,0,0,0,no
0,0,0,0,0,no
0,0,0,0,0,no
0,0,0,0,0,no
0,0,0,0,0,no
0,0,0,0,0,no
0,0,0,0,0,no
0,0,0,0,0,no
0,0,0,0,0,no
0,0,0,0,0,no
0,0,0,0,0,no
0,0,0,0,0,no
0,0,0,0,0,no
0.015957,0.001523,0,0,0.015957,no
0.003408,0.001306,0,0,0.003408,no
0.003873,0.001523,0,0,0.003873,no
0.011154,0.007726,0,0,0.011154,no
0.011154,0.007726,0,0,0.011154,no
0.011154,0.007726,0,0,0.011154,no
0.006584,0.00914,0,0,0.011154,no
0.006584,0.00914,0,0,0.011154,no
0,0,0,0,0,no
0.00031,0.000653,0.59375,0.666667,0.00031,no
0,0,0,0,0,no
0,0,0,0,0,no
0.00031,0.000653,0.625,0.666667,0.00031,no
0,0,0,0,0,no
0,0,0,0,0,no
0,0,0,0,0,no
0,0,0,0,0,no
0,0,0,0,0,no
0,0,0,0,0,no
0,0,0,0,0,no
0.00093,0.000653,0,0,0.00093,no
0,0,0,0,0,no
0,0,0,0,0,no
0,0,0,0,0,no
0.00031,0.000109,0,0,0.00031,no
0.00031,0.000109,0,0,0.00031,no
0,0,0,0,0,no
0,0,0,0,0,no
0,0,0,0,0,no
0.00093,0.000653,0,0,0.00093,no
0,0,0,0,0,no
0.00093,0.000653,0,0,0.00093,no
0.004415,0.003373,0,0,0.007746,no
0.004415,0.003373,0,0,0.007746,no
0.003331,0.003482,0,0,0.003873,no
0.003187,0.009249,0.03125,0.333333,0.006816,no
0.002672,0.00555,0,0,0.005112,no
0.003331,0.004461,0,0,0.006352,no
0.005422,0.01012,0.0625,0,0.015027,no
0.003253,0.004244,0,0,0.003408,no
0.008288,0.000544,0,0,0.015957,no
0.005732,0.003808,0,0,0.005732,no
0.005732,0.003808,0,0,0.005732,no
0.008869,0.023504,0,0.333333,0.031294,no
0.009527,0.02568,0,0,0.031294,no
0.009063,0.024701,0.03125,0.333333,0.031294,no
0.010948,0.021872,0,0.333333,0.031294,no
0.012652,0.025462,0,0.333333,0.031294,no
0.014201,0.029271,0.03125,0,0.031294,no
0.013633,0.028292,0.03125,0,0.031294,no
0.003614,0.006746,0,0,0.009295,no
0,0,0.0625,0,0,yes
0.001704,0.000979,0.0625,0,0.001704,yes
0.000775,0.000435,0,0,0.000775,no
0,0,0,0,0,no
0,0,0,0,0,no
0,0,0,0,0,no
0.002118,0.004026,0.0625,0.333333,0.003408,no
0.001445,0.002829,0.03125,0,0.003408,no
0,0,0,0,0,no
0,0,0,0,0,no
0,0,0,0,0,no
0,0,0,0,0,no
0.000465,0.000218,0.0625,0.333333,0.00031,no
0.00031,0.000109,0,0,0.00031,no
0,0,0.03125,0,0,no
0.006119,0.008596,0.03125,0,0.011619,no
0.00031,0.000109,0.09375,0.333333,0.00031,no
0.00031,0.000109,0.0625,0,0.00031,no
0.002634,0.001741,0,0.666667,0.002634,no
0.002634,0.001741,0,0,0.002634,no
0.006119,0.008596,0.03125,0,0.011619,no
0,0,0,0,0,no
0.001394,0.000435,0.03125,0,0.001394,no
0.006197,0.010011,0.40625,0.666667,0.007591,no
0.002711,0.0037,0.03125,0,0.005112,no
0.002711,0.0037,0.03125,0,0.005112,no
0.00093,0.000979,0.1875,0.666667,0.00093,no
0.003331,0.008923,0.09375,0.333333,0.011619,no
0.006352,0.008705,0.09375,0.333333,0.011619,no
0.006352,0.008705,0.0625,0.333333,0.011619,no
0.006119,0.008596,0,0.333333,0.011619,no
0.006119,0.008596,0.03125,0,0.011619,no
0.007359,0.009902,0,0,0.011619,no
0.007049,0.009793,0.09375,0.333333,0.011619,no
0.006971,0.009684,0.03125,0,0.011619,no
0,0,0,0,0,no
0.00062,0.000544,0,0,0.00062,no
0,0,0,0,0,no
0.00031,0.000109,0,0,0.00031,no
0.00031,0.000109,0,0,0.00031,no
0,0,0,0,0,no
0,0,0.03125,0,0,no
0,0,0.0625,0,0,no
0,0,0.03125,0,0,no
0,0,0,0,0,no
0,0,0,0,0,no
0,0,0.09375,0.333333,0,no
0.000697,0.000762,0,0,0.001084,no
0,0,0,0,0,no
0,0,0,0,0,no
0.000465,0.000326,0,0,0.00062,no
0.00031,0.000109,0,0,0.00031,no
0.00062,0.000218,0,0,0.00062,no
0.00031,0.000109,0,0,0.00031,no
0,0,0,0,0,no
0.00031,0.000109,0,0,0.00031,no
0.00093,0.000326,0,0,0.00093,no
0.00093,0.000326,0.09375,0,0.00093,no
0.00062,0.000218,0,0.666667,0.00031,no
0.00031,0.000109,0,0,0.00031,no
0,0,0,0,0,no
0.00093,0.000326,0.125,0.333333,0.00031,no
0,0,0,0,0,no
0.00031,0.000218,0,0,0.00031,no
0.00062,0.000218,0,0,0.00031,no
0,0,0,0,0,no
0,0,0,0,0,no
0.001859,0.001197,0,0,0.001859,no
0.001859,0.001197,0,0,0.001859,no
0.005577,0.001959,0,0.333333,0.005577,no
0.001975,0.003482,0.03125,0.333333,0.003563,no
0.00093,0.000435,0.125,0.333333,0.002169,no
0,0,0,0,0,no
0.000465,0.000218,0,0,0.000465,no
0,0,0,0,0,no
0.005267,0.000326,0,0,0.005267,no
0.005422,0.003482,0,0,0.005422,no
0.005422,0.003482,0,0,0.005422,no
0.005422,0.003482,0,0,0.005422,no
0.002866,0.003591,0.03125,0,0.005422,no
0.005422,0.003482,0,0,0.005422,no
0.012703,0.020892,0.03125,0.666667,0.02897,no
0.015182,0.020239,0,0,0.02897,no
0.02897,0.019369,0,0,0.02897,no
0.02897,0.019369,0,0,0.02897,no
0.02897,0.019369,0,0,0.02897,no
0.02897,0.019369,0,0,0.02897,no
0.02897,0.019369,0,0,0.02897,no
0.02897,0.019369,0,0,0.02897,no
0.01464,0.019478,0,0,0.02897,no
0.010174,0.020131,0,0,0.02897,no
0.02897,0.019369,0,0,0.02897,no
0.00763,0.020131,0.03125,0,0.02897,no
0.015105,0.020022,0.03125,0,0.02897,no
0.008095,0.020675,0,0,0.02897,no
0.008542,0.032971,0.15625,0.333333,0.02897,no
0.00222,0.004244,0.15625,0.333333,0.004338,yes
0,0,0.09375,0.333333,0,no
0.004957,0.006094,0.0625,0.333333,0.004957,yes
0.00284,0.003591,0.03125,0,0.003408,no
0.006868,0.012731,0.0625,0,0.010999,yes
0.009992,0.012514,0,0,0.010999,no
0.006073,0.017301,0.0625,0,0.010999,no
0.005112,0.006964,0,0,0.008985,no
0.002479,0.004788,0,0.333333,0.004028,no
0.006662,0.000762,0,0.333333,0.006662,no
0.00694,0.021328,0.125,0.666667,0.024322,no
0.00222,0.004244,0.15625,0.333333,0.004338,yes
0.005546,0.019042,0.03125,0,0.024322,no
0.009036,0.018825,0.03125,0,0.024322,no
0.008262,0.017193,0,0,0.024322,no
0.024322,0.016975,0,0,0.024322,no
0.024322,0.016975,0,0,0.024322,no
0.024322,0.016975,0,0,0.024322,no
0.024322,0.016975,0,0,0.024322,no
0.008985,0.018716,0,0,0.024322,no
0.008095,0.022416,0.0625,0,0.024322,no
0.012342,0.023939,0.03125,0,0.024322,no
0.010121,0.019151,0.03125,0,0.024322,no
0.013943,0.023721,0.0625,0,0.024322,no
0.004621,0.01197,0.25,0.333333,0.006662,yes
0,0,0.09375,0.333333,0,no
0.00222,0.004244,0.15625,0.333333,0.004338,yes
0.00191,0.003808,0.09375,0.333333,0.004338,yes
0.001084,0.001306,0.0625,0.333333,0.001859,no
0.001084,0.001306,0.0625,0.333333,0.001859,no
0.000775,0.000326,0.15625,0.333333,0.00031,no
0,0,0.09375,0.333333,0,no
0,0,0.03125,0,0,yes
0,0,0,0,0,no
0,0,0,0,0,no
0,0,0,0,0,no
0,0,0,0,0,no
0,0,0,0,0,no
0.000542,0.000435,0,0,0.00062,no
0.00031,0.000109,0,0,0.00031,no
0,0,0,0,0,no
0.000852,0.001088,0,0,0.001084,no
0.00062,0.000435,0,0,0.00062,no
0.00031,0.000109,0,0,0.00031,no
0,0,0,0,0,no
0,0,0,0,0,no
0.00031,0.000109,0,0,0.00031,no
0.000465,0.000435,0.03125,0,0.00062,no
0.00031,0.000218,0.0625,0.333333,0.00031,no
0.004648,0.005332,0.25,0.333333,0.002634,no
0.001859,0.001197,0,0,0.001859,no
0.001859,0.001197,0,0,0.001859,no
0,0,0,0,0,no
0.002943,0.005767,0.15625,0.333333,0.006662,yes
0.000775,0.000653,0,0.333333,0.00062,no
0.000232,0.000218,0,0,0.00031,no
0.00093,0.000653,0,0,0.00093,no
0.002279,0.006746,0.34375,1,0.003098,no
0.002273,0.003373,0.0625,0,0.003098,no
0.003098,0.001959,0.03125,0,0.003098,no
0.00031,0.000109,0,0,0.00031,no
0.003408,0.002829,0.0625,0.333333,0.009295,no
0.001084,0.00272,0.0625,0,0.002324,no
0,0,0,0,0,no
0.000581,0.000871,0.09375,0.333333,0.00062,no
0.000775,0.000218,0.03125,0,0.000465,no
0.001084,0.00185,0.03125,0,0.003408,no
0.001936,0.002285,0.03125,0,0.002943,no
0.000697,0.000218,0,0,0.001084,no
0.00093,0.000326,0,0,0.00062,no
0,0,0,0,0,no
0.00031,0.000109,0,0,0.00031,no
0.00031,0.000109,0,0,0.00031,no
0.000361,0.000435,0,0,0.000465,no
0.002014,0.001415,0,0,0.002014,no
0.002014,0.001415,0,0,0.002014,no
0.000465,0.000435,0.03125,0,0.00031,no
0.00093,0.000326,0.15625,0.333333,0.00062,no
0.00031,0.000109,0.03125,0,0.00031,no
0.001033,0.001741,0.21875,0.666667,0.001549,no
0,0,0,0,0,no
0,0,0,0.333333,0,no
0.00093,0.000326,0.09375,0.333333,0.00031,yes
0.00031,0.000435,0.03125,0,0.000465,no
0.00031,0.000109,0,0,0.00031,no
0.002401,0.002503,0.21875,0.666667,0.002324,yes
0,0,0,0,0,yes
0,0,0,0,0,no
0,0,0,0,0,no
0,0,0,0,0,no
0.001394,0.000871,0,0,0.001394,no
0.00062,0.001632,0,0,0.001394,no
0.00093,0.001632,0.03125,0,0.001394,no
0.000775,0.000979,0.03125,0,0.001239,no
0.00129,0.003373,0.25,0.666667,0.001084,no
0,0,0,0.333333,0,no
0,0,0,0,0,no
0,0,0,0,0,no
0,0,0,0,0,no
0,0,0,0,0,no
0,0,0,0,0,no
0.000465,0.000218,0,0.333333,0.000465,yes
0,0,0,0,0,no
0,0,0,0,0,no
0,0,0.03125,0,0,no
0.001394,0.000762,0,0,0.001394,no
0.004338,0.001632,0.125,0,0.002479,no
0.000465,0.000326,0,0,0.000465,no
0,0,0,0,0,no
0,0,0,0,0,no
0,0,0.0625,0,0,no
0,0,0,0,0,no
0,0,0,0,0,no
0,0,0,0,0,no
0,0,0,0,0,no
0,0,0,0,0,no
0,0,0,0,0,no
0,0,0,0,0,no
0,0,0,0,0,no
0,0,0,0,0,no
0,0,0,0,0,no
0.005887,0.004135,0,0,0.005887,no
0.005887,0.004135,0,0,0.005887,no
0.005887,0.004135,0,0,0.005887,no
0.005887,0.004135,0,0,0.005887,no
0.001394,0.000979,0,0,0.001394,no
0,0,0,0,0,no
0,0,0,0,0,no
0,0,0,0,0,no
0,0,0,0,0,no
0,0,0,0,0,no
0,0,0,0,0,no
0,0,0,0,0,no
0,0,0,0,0,no
0,0,0,0,0,no
0,0,0,0,0,no
0.00062,0.000653,0.03125,0,0.00093,no
0,0,0,0,0,no
0.00031,0.000218,0,0,0.00031,no
0.003253,0.002285,0,0,0.003253,no
0.003253,0.002285,0,0,0.003253,no
0.004183,0.002938,0,0,0.004183,no
0.004183,0.002938,0,0,0.004183,no
0,0,0,0,0,yes
0,0,0,0,0,no
0,0,0,0,0,no
0,0,0,0,0,no
0,0,0,0,0,no
0,0,0,0,0,no
0,0,0,0,0,no
0,0,0,0,0,no
0,0,0,0,0,no
0,0,0,0,0,no
0.001859,0.001306,0,0,0.001859,no
0.001859,0.001306,0,0,0.001859,no
0.002014,0.002829,0,0,0.002169,no
0.001084,0.001415,0,0,0.001859,no
0,0,0,0,0,no
0.00031,0.000109,0,0,0.00031,no
0,0,0,0,0,no
0.00031,0.000109,0,0,0.00031,no
0,0,0,0,0,no
0.00031,0.000109,0,0,0.00031,no
0,0,0,0,0,no
0.00062,0.000218,0,0,0.00031,no
0,0,0,0,0,no
0.00031,0.000109,0,0,0.00031,no
0,0,0.03125,0,0,no
0,0,0.03125,0,0,no
0.00031,0.000109,0.03125,0,0.00031,no
0.00031,0.000109,0.0625,0,0.00031,no
0,0,0,0,0,no
0.00031,0.000218,0,0,0.00031,no
0.002014,0.00272,0.03125,0,0.003098,no
0.003098,0.002176,0,0,0.003098,no
0,0,0,0,0,no
0.016421,0.011534,0,0,0.016421,no
0.016421,0.011534,0,0,0.016421,no
0.016421,0.011534,0,0,0.016421,no
0.016421,0.011534,0,0,0.016421,no
0.016421,0.011534,0,0,0.016421,no
0.016421,0.011534,0,0,0.016421,no
0.016421,0.011534,0,0,0.016421,no
0.016421,0.011534,0,0,0.016421,no
0,0,0,0,0,no
0,0,0,0,0,no
0,0,0,0,0,no
0,0,0,0,0,no
0.00062,0.000435,0,0,0.00062,no
0,0,0.03125,0,0,no
0.00031,0.000109,0.0625,0,0.00031,no
0,0,0,0,0,no
0,0,0.0625,0,0,no
0,0,0.0625,0,0,no
0,0,0.125,0.333333,0,no
0,0,0.125,0.333333,0,no
0.00093,0.000871,0.125,0.333333,0.00093,no
0,0,0.09375,0.333333,0,no
0,0,0.09375,0.666667,0,no
0,0,0.09375,0.333333,0,no
0.003253,0.002285,0.03125,0,0.003253,no
0.003253,0.002285,0,0,0.003253,no
0.003253,0.002285,0.03125,0,0.003253,no
0.00031,0.000109,0.03125,0,0.00031,no
0.00093,0.000435,0.03125,0,0.00031,no
0.00031,0.000218,0.03125,0,0.00031,no
0,0,0,0,0,no
0,0,0.03125,0,0,no
0,0,0,0.333333,0,no
0,0,0,0,0,no
0,0,0,0,0,no
0,0,0,0,0,no
0.000775,0.000326,0.09375,0,0.000775,yes
0.000465,0.000218,0.0625,0,0.000465,no
0.00031,0.000109,0.03125,0,0.00031,no
0.00062,0.000326,0.15625,0.333333,0.00031,no
0.00062,0.000326,0.03125,0,0.00031,no
0.00062,0.000326,0.03125,0,0.00031,no
0,0,0,0,0,no
0,0,0.0625,0.333333,0,no
0,0,0.03125,0,0,no
0,0,0,0,0,no
0,0,0.0625,0,0,no
0,0,0.03125,0,0,no
0,0,0,0,0,no
0,0,0,0,0,no
0,0,0.03125,0.666667,0,no
0,0,0,0,0,no
0,0,0,0,0,no
0,0,0.0625,0.666667,0,no
0,0,0.0625,0.333333,0,no
0,0,0.03125,0,0,no
0,0,0,0,0,no
0,0,0,0,0,no
0,0,0,0,0,no
0.00062,0.000544,0.09375,0.333333,0.00031,yes
0.001239,0.000435,0.03125,0.333333,0.000465,no
0,0,0,0,0,no
0,0,0.09375,0.666667,0,no
0,0,0.0625,0.333333,0,no
0,0,0,0,0,no
0,0,0,0,0,no
0,0,0.0625,0,0,no
0,0,0,0,0,no
0,0,0,0,0,no
0,0,0,0,0,no
0,0,0,0,0,no
0,0,0.03125,0,0,no
0,0,0.15625,0.333333,0,no
0,0,0.0625,0,0,no
0.000775,0.000544,0,0,0.000775,no
0.000775,0.000544,0,0,0.000775,no
0,0,0,0,0,no
0,0,0,0,0,no
0.00031,0.000109,0,0,0.00031,no
0,0,0,0.333333,0,no
0,0,0,0,0,no
0,0,0,0,0,no
0,0,0,0,0,no
0,0,0,0,0,no
0,0,0,0,0,no
0,0,0,0,0,no
0.00031,0.000109,0.3125,0.666667,0.00031,no
0,0,0,0,0,no
0,0,0.03125,0.333333,0,no
0,0,0,0,0,no
0,0,0,0,0,no
0,0,0,0,0,no
0,0,0,0,0,no
0,0,0.03125,0.333333,0,no
0,0,0,0,0,no
0,0,0,0,0,no
0,0,0,0,0,no
0,0,0,0,0,no
0,0,0,0,0,no
0,0,0,0,0,no
0,0,0,0,0,no
0,0,0,0,0,no
0,0,0.15625,0.333333,0,yes
0,0,0.09375,0,0,no
0,0,0.09375,0,0,no
0,0,0,0,0,no
0,0,0.03125,0,0,no
0,0,0,0,0,no
0,0,0,0,0,no
0,0,0.03125,0,0,no
0,0,0.03125,0,0,no
0,0,0,0,0,no
0.000349,0.000544,0.0625,0,0.000465,no
0.001975,0.005005,0.0625,0.333333,0.003408,no
0.003253,0.00457,0,0,0.003408,no
0.002014,0.002503,0.03125,0.333333,0.003098,no
0,0,0.03125,0,0,no
0.00031,0.000109,0.03125,0.333333,0.00031,no
0,0,0.03125,0,0,no
0,0,0.03125,0.333333,0,no
0,0,0.03125,0,0,no
0,0,0,0,0,no
0.00031,0.000218,0,0,0.00031,no
0,0,0,0,0,no
0,0,0.03125,0,0,no
0,0,0,0,0,no
0,0,0.09375,0.333333,0,no
0,0,0.03125,0.333333,0,no
0.01007,0.007073,0,0,0.01007,no
0.01007,0.007073,0.03125,0,0.01007,no
0.01007,0.007073,0.03125,0,0.01007,no
0.00031,0.000109,0,0,0.00031,no
0,0,0,0,0,no
0,0,0,0,0,no
0.000806,0.002612,0,0,0.002789,no
0.001343,0.002829,0,0,0.002789,no
0.003408,0.004788,0,0,0.003873,yes
0.002789,0.005767,0.03125,0,0.004183,no
0.004028,0.005658,0.03125,0,0.004183,no
0.003047,0.00642,0.03125,0,0.004183,no
0,0,0.0625,0,0,no
0.00062,0.000218,0,0,0.00062,no
0.005732,0.011425,0,0,0.010844,no
0.004454,0.011861,0,0,0.010844,no
0.004454,0.011861,0,0,0.010844,no
0.005732,0.011425,0,0,0.010844,no
0.004183,0.007835,0,0,0.010844,no
0.002014,0.000979,0,0,0.002014,no
0.006119,0.007943,0,0,0.010844,no
0.003873,0.009576,0.0625,0,0.010844,no
0.001983,0.005114,0.15625,0.333333,0.002169,no
0.002634,0.002503,0.125,0.333333,0.002014,no
0.002014,0.000979,0,0,0.002014,no
0.002208,0.004788,0.78125,0.666667,0.001549,yes
0.003563,0.002503,0,0.333333,0.003563,no
0.003563,0.002503,0.09375,0.666667,0.003563,yes
0,0,0,0,0,no
0,0,0,0,0,no
0,0,0,0,0,no
0,0,0,0,0,no
0,0,0,0,0,no
0,0,0,0,0,no
0,0,0,0,0,no
0,0,0,0,0,no
0,0,0,0,0,no
0,0,0.03125,0,0,no
0,0,0,0,0,no
0,0,0,0,0,no
0,0,0,0,0,no
0,0,0,0,0,no
0,0,0,0,0,no
0,0,0,0,0,no
0,0,0,0.333333,0,no
0,0,0,0,0,no
0,0,0,0.333333,0,no
0.010225,0.007182,0.03125,0.333333,0.010225,no
0.010225,0.007182,0.0625,0,0.010225,no
0.010225,0.007182,0.03125,0,0.010225,no
0.010225,0.007182,0,0,0.010225,no
0,0,0,0,0,no
0.000697,0.000653,0,0,0.00062,no
0,0,0,0,0,no
0.00031,0.000109,0,0,0.00031,no
0,0,0,0,0,no
0.000465,0.000326,0.125,0.333333,0.00031,no
0,0,0.0625,0,0,no
0,0,0.0625,0,0,no
0.00031,0.000109,0.5,0.666667,0.00031,no
0,0,0,0,0,no
0,0,0,0,0,no
0,0,0.0625,0,0,no
0,0,0.03125,0,0,no
0,0,0,0,0,no
0.00093,0.000653,0.03125,0,0.00093,no
0,0,0.03125,0,0,no
0.000697,0.000871,0.03125,0,0.001084,no
0,0,0.21875,0.333333,0,no
0,0,0.0625,0,0,no
0.00031,0.000109,0.15625,0.333333,0.00031,no
0,0,0.0625,0,0,no
0,0,0,0,0,no
0.00062,0.000326,0,0,0.00062,no
0,0,0,0,0,no
0.00093,0.000326,0,0,0.00093,no
0,0,0.03125,0,0,no
0,0,0,0,0,no
0.001084,0.001415,0,0,0.001239,no
0.000658,0.001523,0,0.333333,0.001239,no
0.001033,0.001088,0.09375,0.333333,0.00093,yes
0,0,0.0625,0,0,yes
0.002789,0.004788,0.09375,0.333333,0.002324,yes
0.001704,0.004026,0.09375,0.666667,0.003408,no
0,0,0.0625,0,0,yes
0.002428,0.007617,0.0625,0.666667,0.006197,no
0,0,0.0625,0,0,yes
0.002582,0.005005,0.09375,0.333333,0.006197,no
0,0,0.0625,0,0,yes
0,0,0.0625,0,0,no
0,0,0.03125,0,0,no
0.00031,0.000218,0.09375,0,0.00031,no
0.000426,0.000979,0.0625,0.333333,0.00062,no
0.00031,0.000218,0.09375,0,0.00031,no
0.000387,0.000326,0,0,0.000465,no
0.000465,0.000218,0.03125,0,0.00031,no
0.000542,0.000435,0,0,0.000465,no
0.001394,0.002938,0.15625,0.333333,0.001859,no
0.00062,0.000544,0.15625,0.333333,0.00031,yes
0.00031,0.000218,0.09375,0,0.00031,no
0.001033,0.001415,0.21875,0.333333,0.000775,no
0.000387,0.000544,0.21875,0.333333,0.000465,no
0,0,0,0,0,no
0,0,0,0,0,no
0.001084,0.000653,0,0,0.001084,no
0.000155,0.000109,0,0,0.000155,no
0,0,0.03125,0,0,no
0,0,0,0,0,no
0,0,0,0,0,no
0.00062,0.000435,0,0,0.00062,yes
0,0,0.03125,0,0,no
0,0,0.03125,0,0,no
0,0,0,0,0,no
0,0,0,0,0,no
0,0,0,0,0,no
0,0,0,0,0,no
0,0,0,0,0,no
0,0,0.03125,0,0,no
0,0,0.03125,0,0,no
0,0,0,0,0,no
0,0,0.03125,0,0,no
0,0,0.03125,0,0,no
0,0,0,0,0,no
0,0,0,0,0,no
0,0,0,0,0,no
0,0,0.03125,0,0,no
0,0,0,0,0,no
0,0,0.0625,0,0,yes
0,0,0,0,0,no
0,0,0,0,0,no
0,0,0,0,0,no
0,0,0,0,0,no
0,0,0,0,0,no
0,0,0,0,0,no
0,0,0,0,0,no
0,0,0,0,0,no
0,0,0.125,0.333333,0,no
0,0,0.0625,0,0,no
0,0,0.0625,0,0,no
0,0,0.0625,0,0,no
0,0,0,0,0,no
0,0,0,0,0,no
0,0,0,0,0,no
0,0,0.09375,0,0,no
0,0,0.0625,0,0,no
0,0,0.09375,0,0,no
0,0,0.03125,0,0,no
0.00031,0.000109,0,0,0.00031,no
0.000878,0.000979,0.125,0.333333,0.000465,no
0,0,0,0,0,no
0,0,0.09375,0.333333,0,no
0,0,0,0,0,no
0,0,0,0,0,no
0,0,0,0,0,no
0,0,0,0,0,no
0,0,0,0,0,no
0,0,0,0,0,no
0,0,0,0,0,no
0,0,0,0,0,no
0,0,0,0,0,no
0,0,0.03125,0,0,no
0,0,0,0,0,no
0,0,0,0,0,no
0,0,0,0,0,no
0,0,0,0,0,no
0,0,0.03125,0,0,no
0,0,0,0,0,no
0,0,0,0,0,no
0,0,0,0,0,no
0,0,0.1875,0.333333,0,no
0,0,0,0,0,no
0,0,0.3125,0.666667,0,no
0,0,0.25,0.333333,0,no
0,0,0.0625,0.333333,0,no
0,0,0,0,0,no
0,0,0,0,0,no
0,0,0.125,0.333333,0,no
0,0,0.09375,0,0,no
0.003176,0.003808,0,0,0.005112,no
0.003331,0.003917,0,0,0.005112,no
0.00519,0.005767,0.0625,0.333333,0.006352,no
0.004841,0.006964,0.0625,0,0.004957,no
0.003977,0.008923,0.0625,0.333333,0.004957,no
0.001611,0.004026,0.125,0.333333,0.002014,no
0,0,0,0,0,no
0.004183,0.002612,0.03125,0,0.004183,no
0.002246,0.00272,0.0625,0,0.004183,no
0,0,0.1875,0.333333,0,yes
0,0,0,0,0,no
0.00031,0.000109,0.0625,0,0.00031,no
0.001549,0.000544,0.03125,0,0.00062,yes
0,0,0.0625,0,0,no
0,0,0.03125,0,0,no
0,0,0.03125,0,0,no
0,0,0,0,0,no
0,0,0,0,0,no
0,0,0.03125,0,0,no
0.00062,0.000435,0.03125,0,0.00031,no
0.00031,0.000109,0,0,0.00031,no
0.00031,0.000109,0.0625,0,0.00031,no
0,0,0,0,0,no
0.00031,0.000109,0,0,0.00031,no
0,0,0.0625,0.666667,0,no
0,0,0.03125,0,0,no
0,0,0.03125,0,0,no
0,0,0,0,0,no
0,0,0,0,0,no
0,0,0,0,0,no
0,0,0,0,0,no
0,0,0,0,0,no
0,0,0,0,0,no
0,0,0,0,0,no
0,0,0,0,0,no
0.00031,0.000109,0,0.333333,0.00031,no
0,0,0,0,0,no
0,0,0,0,0,no
0.00031,0.000109,0,0,0.00031,no
0,0,0,0.333333,0,no
0.007126,0.005005,0,0,0.007126,no
0,0,0,0.333333,0,no
0,0,0,0,0,no
0,0,0,0,0,no
0,0,0,0,0,no
0.00031,0.000326,0,0,0.00031,no
0,0,0,0,0,no
0,0,0,0,0,no
0,0,0,0,0,no
0,0,0,0,0,no
0,0,0,0,0,no
0.00031,0.000109,0,0.333333,0.00031,no
0.00031,0.000435,0.0625,0.333333,0.00031,no
0.00031,0.000218,0,0.333333,0.00031,no
0,0,0.03125,0,0,no
0.000542,0.000435,0.1875,0.333333,0.00062,yes
0.00062,0.000218,0,0.333333,0.00031,no
0,0,0,0,0,no
0.00062,0.000762,0.15625,0.333333,0.00031,no
0.00062,0.000218,0.09375,0.666667,0.00031,no
0,0,0.0625,0,0,no
0.000465,0.000435,0.09375,0.333333,0.00031,yes
0,0,0,0,0,yes
0,0,0.03125,0,0,no
0.00062,0.000435,0,0,0.00062,no
0,0,0.03125,0,0,no
0.00031,0.000109,0.0625,0,0.00031,no
0,0,0,0,0,no
0.001859,0.001088,0.15625,0.333333,0.001549,no
0,0,0.09375,0,0,no
0.001549,0.000979,0.03125,0,0.001549,no
0.00031,0.000109,0.125,0,0.00031,yes
0,0,0,0,0,no
0,0,0,0,0,no
0,0,0,0,0,yes
0,0,0,0,0,no
0,0,0,0,0,no
0.00031,0.000109,0.0625,0.333333,0.00031,no
0.000465,0.000218,0,0,0.00031,no
0,0,0,0,0,no
0.002014,0.001415,0.09375,0.333333,0.001859,no
0.006816,0.003808,0.03125,0.333333,0.004802,no
0.001704,0.001197,0,0,0.001704,no
0.001704,0.001197,0,0,0.001704,no
0,0,0.03125,0,0,no
0,0,0.03125,0,0,no
0,0,0,0,0,no
0,0,0,0,0,no
0,0,0,0,0,no
0,0,0,0,0,no
0,0,0,0,0,no
0,0,0,0,0,no
0,0,0,0,0,no
0,0,0,0,0,no
0,0,0,0,0,no
0,0,0,0,0,no
0.001859,0.001306,0,0,0.001859,no
0,0,0.03125,0,0,no
0,0,0,0,0,no
0,0,0.09375,0,0,no
0.000775,0.000544,0,0.333333,0.00062,no
0,0,0.09375,0,0,no
0.000775,0.000326,0.3125,0.666667,0.000775,no
0,0,0,0,0,no
0,0,0.0625,0,0,no
0,0,0,0,0,no
0,0,0.0625,0,0,no
0,0,0,0,0,no
0,0,0,0,0,no
0,0,0,0,0,no
0,0,0,0,0,no
0,0,0,0,0,no
0,0,0,0,0,no
0,0,0,0,0,no
0,0,0,0,0,no
0,0,0,0,0,no
0,0,0,0,0,no
0.00031,0.000109,0,0,0.00031,no
0,0,0,0,0,no
0.00031,0.000218,0,0,0.00031,no
0.00031,0.000218,0,0,0.00031,no
0.00031,0.000109,0,0,0.00031,no
0,0,0,0,0,no
0,0,0.03125,0,0,no
0,0,0.03125,0,0,no
0,0,0,0,0,no
0,0,0,0,0,no
0,0,0,0,0,no
0.00062,0.000435,0.15625,0.333333,0.00031,no
0.00031,0.000109,0,0,0.00031,no
0,0,0.03125,0,0,no
0.002014,0.001415,0.09375,0,0.003408,no
0,0,0,0,0,no
0.00031,0.000109,0.03125,0,0.00031,no
0,0,0,0,0,no
0.00031,0.000109,0,0,0.00031,no
0.003563,0.005223,0.21875,0.333333,0.009295,no
0.002737,0.003047,0.125,0.333333,0.004802,no
0.00062,0.000435,0.09375,0.333333,0.00062,no
0.002169,0.000762,0.1875,0.333333,0.001239,no
0.002324,0.002829,0.09375,0.333333,0.004802,no
0,0,0,0,0,no
0,0,0,0,0,no
0.00093,0.000653,0.1875,0.333333,0.00062,no
0.00031,0.000109,0,0,0.00031,no
0.00093,0.000326,0.03125,0,0.00031,no
0.00031,0.000109,0,0,0.00031,no
0.000723,0.001088,0.25,0.333333,0.000465,no
0,0,0,0,0,no
0,0,0,0,0,no
0,0,0,0,0,no
0,0,0.03125,0,0,no
0,0,0,0,0,no
0,0,0,0,0,no
0,0,0,0,0,no
0,0,0,0,0,no
0,0,0,0,0,no
0,0,0,0,0,no
0,0,0.03125,0.333333,0,yes
0,0,0.03125,0,0,no
0.002479,0.000544,0.03125,0.333333,0.002014,no
0,0,0.03125,0,0,no
0,0,0.09375,0.333333,0,no
0,0,0,0,0,no
0,0,0,0,0,no
0,0,0,0,0,no
0,0,0.09375,0,0,no
0,0,0,0,0,no
0,0,0,0,0,no
0,0,0,0,0,no
0,0,0.21875,0.333333,0,no
0.001239,0.000762,0.125,0.333333,0.001239,no
0.000465,0.000326,0.0625,0.333333,0.00031,yes
0.000465,0.000326,0.09375,0.333333,0.00031,no
0,0,0,0,0,no
0.001549,0.001088,0,0,0.001549,no
0.000542,0.000435,0,0,0.00062,no
0.001808,0.002285,0.3125,0.666667,0.002324,no
0.001653,0.002503,0.125,0.666667,0.002324,no
0.00031,0.000218,0,0,0.00031,no
0.00031,0.000109,0,0,0.00031,no
0.001317,0.001306,0.0625,0,0.001239,no
0,0,0,0.333333,0,no
0,0,0,0.333333,0,no
0.00062,0.000218,0.03125,0.333333,0.00031,no
0.00031,0.000109,0,0,0.00031,no
0,0,0.0625,0.333333,0,no
0,0,0,0,0,no
0.00093,0.000326,0.03125,0.666667,0.00062,no
0,0,0,0,0,no
0,0,0,0,0,no
0,0,0.03125,0,0,no
0,0,0.0625,0,0,no
0.00093,0.001306,0.15625,0.333333,0.00093,yes
0.00093,0.000653,0.0625,0.333333,0.00031,no
0,0,0.03125,0,0,no
0.001162,0.001415,0,0,0.002014,no
0.001162,0.001415,0,0,0.002014,no
0,0,0,0,0,no
0.00031,0.000109,0,0,0.00031,no
0.001704,0.002829,0.21875,0.333333,0.002943,no
0,0,0.03125,0,0,no
0.000542,0.000435,0.09375,0.333333,0.00062,no
0,0,0.03125,0,0,no
0,0,0.09375,0,0,no
0,0,0.09375,0.333333,0,no
0,0,0.03125,0,0,no
0,0,0,0,0,no
0.001704,0.001088,0.0625,0,0.001704,no
0,0,0,0,0,no
0.001859,0.001306,0,0,0.001859,no
0.00031,0.000109,0,0,0.00031,no
0.00031,0.000109,0,0,0.00031,no
0,0,0,0,0,no
0,0,0,0,0,no
0,0,0,0,0,no
0.00062,0.000435,0.3125,0.666667,0.00031,no
0.001394,0.000979,0.375,0.666667,0.00062,no
0.000516,0.000544,0.21875,0.333333,0.00031,no
0,0,0.0625,0,0,no
0.00031,0.000109,0,0,0.00031,no
0.00031,0.000109,0,0,0.00031,no
0.000826,0.001088,0.21875,0.333333,0.000465,no
0,0,0.03125,0,0,no
0,0,0,0,0,no
0,0,0,0,0,no
0,0,0,0,0,no
0,0,0,0,0,no
0.004183,0.001523,0,0.333333,0.001239,no
0.001239,0.000435,0,0,0.001239,no
0.001239,0.000435,0,0,0.001239,no
0.001084,0.000435,0,0,0.001084,no
0,0,0,0,0,no
0.001394,0.000979,0,0,0.001394,no
0,0,0,0,0,no
0.001394,0.000979,0,0,0.001394,no
0,0,0,0,0,no
0,0,0,0,0,no
0.00093,0.000326,0.15625,0.666667,0.00031,no
0,0,0.0625,0,0,no
0,0,0,0,0,no
0,0,0,0,0,no
0.00031,0.000109,0,0,0.00031,no
0.00062,0.000218,0,0,0.00062,no
0,0,0,0,0,no
0,0,0,0,0,no
0,0,0,0,0,no
0.000775,0.000544,0.0625,0,0.00062,no
0,0,0,0,0,no
0.00031,0.000109,0.03125,0,0.00031,no
0.00062,0.000218,0,0,0.00062,no
0,0,0,0,0,no
0,0,0,0,0,no
0,0,0,0,0,no
0,0,0.03125,0,0,no
0,0,0.03125,0,0,no
0,0,0.03125,0,0,no
0,0,0,0,0,no
0,0,0,0,0,no
0,0,0,0,0,no
0,0,0,0,0,no
0,0,0,0,0,no
0,0,0,0,0,no
0,0,0,0,0,no
0,0,0.0625,0,0,no
0,0,0,0,0,no
0,0,0,0,0,no
0,0,0.125,0.333333,0,no
0,0,0.03125,0,0,no
0,0,0,0,0,no
0,0,0.0625,0,0,no
0,0,0,0,0,no
0,0,0,0,0,no
0,0,0,0,0,no
0,0,0,0,0,no
0,0,0,0,0,no
0,0,0,0,0,no
0,0,0,0,0,no
0,0,0.03125,0,0,no
0.000775,0.000544,0,0,0.000775,no
0,0,0,0,0,no
0,0,0,0,0,no
0,0,0,0,0,no
0,0,0,0,0,no
0,0,0,0,0,no
0,0,0,0,0,no
0,0,0,0,0,no
0,0,0,0,0,no
0,0,0,0,0,no
0,0,0,0,0,no
0.00093,0.000326,0.03125,0,0.00062,no
0,0,0.09375,0,0,no
0,0,0,0,0,no
0,0,0,0,0,no
0,0,0,0,0,no
0,0,0.25,0.333333,0,yes
0,0,0,0,0,no
0,0,0,0,0,no
0,0,0,0,0,no
0,0,0,0,0,no
0,0,0,0,0,no
0,0,0,0,0,no
0,0,0,0,0,no
0,0,0,0,0,no
0,0,0,0,0,no
0,0,0,0,0,no
0,0,0,0,0,no
0,0,0,0,0,no
0,0,0,0,0,no
0,0,0,0,0,no
0,0,0,0,0,no
0.003098,0.002176,0,0,0.003098,no
0.003098,0.002176,0,0,0.003098,no
0.634469,0.890642,0,0,1,no
0.634469,0.890642,0.125,0,1,yes
0.634469,0.890642,0,0,1,no
0.634469,0.890642,0,0,1,no
0.634469,0.890642,0,0,1,no
0.511541,0.718063,0,0,1,no
0.519365,0.71556,0,0,1,no
0.634469,0.890642,0.03125,0,1,no
0.01038,0.003373,0,0,0.016576,no
0.634469,0.890642,0,0,1,no
0.634469,0.890642,0.125,0,1,yes
0.634469,0.890642,0,0,1,no
0.634469,0.890642,0,0,1,no
0.634469,0.890642,0,0,1,no
0.511541,0.718063,0,0,1,no
0.519365,0.71556,0,0,1,no
0.634469,0.890642,0.03125,0,1,no
0.502091,0.704788,0,0,1,no
0.634469,0.890642,0,0,1,no
0.634469,0.890642,0.125,0,1,yes
0.634469,0.890642,0,0,1,no
0.634469,0.890642,0,0,1,no
0.634469,0.890642,0,0,1,no
0.511541,0.718063,0,0,1,no
0.519365,0.71556,0,0,1,no
0.634469,0.890642,0.03125,0,1,no
0.500852,0.702612,0,0,1,no
0.502091,0.704788,0,0,1,no
0.502091,0.704788,0,0,1,no
0.510844,0.714908,0,0,1,no
0.511541,0.718063,0,0,1,no
0.519365,0.71556,0,0,1,no
0.510844,0.714908,0,0,1,no
0.531526,0.707508,0,0,1,no
0.503408,0.70642,0,0,1,no
0.503408,0.70642,0,0,1,no
0.503408,0.70642,0,0,1,no
0.512084,0.716649,0,0,1,no
0.512084,0.716649,0,0,1,no
0.511541,0.718063,0,0,1,yes
0.501627,0.702503,0,0,1,no
0.511541,0.718063,0,0,1,yes
0.511541,0.718063,0.03125,0,1,yes
0.511541,0.718063,0,0,1,no
0.511541,0.718063,0,0,1,no
0.511541,0.718063,0,0,1,no
0.511541,0.718063,0,0,1,no
0.511541,0.718063,0,0,1,no
0.511541,0.718063,0,0,1,no
0.511541,0.718063,0.03125,0,1,no
0.511541,0.718063,0.03125,0,1,no
0.511541,0.718063,0,0,1,no
0.511541,0.718063,0,0,1,no
0.511541,0.718063,0,0,1,no
0.511541,0.718063,0,0,1,no
0.513168,0.718172,0,0,1,no
0.511541,0.718063,0,0,1,no
0.511541,0.718063,0,0,1,no
0.511541,0.718063,0,0,1,no
0.511541,0.718063,0,0,1,no
0.511541,0.718063,0.03125,0,1,yes
0.511541,0.718063,0,0,1,no
0.511541,0.718063,0,0,1,no
0.511541,0.718063,0,0,1,no
0.501627,0.702503,0,0,1,no
0.504725,0.70272,0.03125,0,1,no
0.501627,0.702612,0.03125,0,1,no
0.501239,0.702829,0.0625,0,1,yes
0.500775,0.702503,0.03125,0,1,no
0.53292,0.70827,0.125,0,1,no
0.512858,0.71099,0.15625,0.333333,1,yes
0.531526,0.707508,0,0,1,no
0.503408,0.70642,0,0,1,no
0.503408,0.70642,0.03125,0,1,no
0.503408,0.70642,0,0,1,no
0.503408,0.70642,0,0,1,no
0.503408,0.70642,0,0,1,no
0.503408,0.70642,0.03125,0,1,no
0.503408,0.70642,0,0,1,no
0.512084,0.716649,0,0,1,no
0.512084,0.716649,0,0,1,no
0.512084,0.716649,0.03125,0,1,no
0.512084,0.716649,0,0,1,no
0.512084,0.716649,0.03125,0,1,no
0.512084,0.716649,0,0,1,no
0.503098,0.706202,0,0,1,no
0.503098,0.706202,0,0,1,no
0.510844,0.714908,0,0,1,no
0.511541,0.718063,0,0,1,no
0.519365,0.71556,0,0,1,no
0.510844,0.714908,0,0,1,no
0.524555,0.736344,0,0,1,no
0.524555,0.736344,0,0,1,no
0.524555,0.736344,0,0,1,no
0.524555,0.736344,0,0,1,no
0.511541,0.718063,0,0,1,yes
0.501627,0.702503,0,0,1,no
0.511541,0.718063,0,0,1,yes
0.511541,0.718063,0.03125,0,1,yes
0.511541,0.718063,0,0,1,no
0.511541,0.718063,0,0,1,no
0.511541,0.718063,0,0,1,no
0.511541,0.718063,0,0,1,no
0.511541,0.718063,0,0,1,no
0.511541,0.718063,0,0,1,no
0.511541,0.718063,0.03125,0,1,no
0.511541,0.718063,0.03125,0,1,no
0.511541,0.718063,0,0,1,no
0.511541,0.718063,0,0,1,no
0.511541,0.718063,0,0,1,no
0.511541,0.718063,0,0,1,no
0.524555,0.736344,0,0,1,no
0.511541,0.718063,0,0,1,no
0.511541,0.718063,0,0,1,no
0.511541,0.718063,0,0,1,no
0.511541,0.718063,0,0,1,no
0.511541,0.718063,0.03125,0,1,yes
0.511541,0.718063,0,0,1,no
0.511541,0.718063,0,0,1,no
0.511541,0.718063,0,0,1,no
0.501627,0.702503,0,0,1,no
0.504725,0.70272,0.03125,0,1,no
0.501627,0.702612,0.03125,0,1,no
0.501239,0.702829,0.0625,0,1,yes
0.500775,0.702503,0.03125,0,1,no
0.524555,0.736344,0.09375,0,1,no
0.512858,0.71099,0.15625,0.333333,1,yes
0.524555,0.736344,0,0,1,no
0.524555,0.736344,0,0,1,no
0.524555,0.736344,0.03125,0,1,no
0.524555,0.736344,0,0,1,no
0.524555,0.736344,0,0,1,no
0.524555,0.736344,0,0,1,no
0.524555,0.736344,0,0,1,no
0.524555,0.736344,0,0,1,no
0.524555,0.736344,0,0,1,no
0.524555,0.736344,0,0,1,no
0.510844,0.714908,0,0,1,no
0.511541,0.718063,0,0,1,no
0.519365,0.71556,0,0,1,no
0.510844,0.714908,0,0,1,no
0.634469,0.890642,0,0,1,no
0.634469,0.890642,0,0,1,no
0.634469,0.890642,0,0,1,no
0.634469,0.890642,0,0,1,no
0.634469,0.890642,0,0,1,no
0.511541,0.718063,0,0,1,yes
0.501627,0.702503,0,0,1,no
0.511541,0.718063,0,0,1,yes
0.511541,0.718063,0.03125,0,1,yes
0.511541,0.718063,0,0,1,no
0.511541,0.718063,0,0,1,no
0.511541,0.718063,0,0,1,no
0.511541,0.718063,0,0,1,no
0.511541,0.718063,0,0,1,no
0.511541,0.718063,0,0,1,no
0.511541,0.718063,0.03125,0,1,no
0.511541,0.718063,0.03125,0,1,no
0.511541,0.718063,0,0,1,no
0.511541,0.718063,0,0,1,no
0.511541,0.718063,0,0,1,no
0.511541,0.718063,0,0,1,no
0.634469,0.890642,0,0,1,no
0.511541,0.718063,0,0,1,no
0.511541,0.718063,0,0,1,no
0.511541,0.718063,0,0,1,no
0.511541,0.718063,0,0,1,no
0.511541,0.718063,0.03125,0,1,yes
0.511541,0.718063,0,0,1,no
0.511541,0.718063,0,0,1,no
0.511541,0.718063,0,0,1,no
0.501627,0.702503,0,0,1,no
0.504725,0.70272,0.03125,0,1,no
0.501627,0.702612,0.03125,0,1,no
0.501239,0.702829,0.0625,0,1,yes
0.500775,0.702503,0.03125,0,1,no
0.634469,0.890642,0.125,0,1,no
0.512858,0.71099,0.15625,0.333333,1,yes
0.634469,0.890642,0,0,1,no
0.634469,0.890642,0,0,1,no
0.634469,0.890642,0,0,1,no
0.634469,0.890642,0,0,1,no
0.634469,0.890642,0,0,1,no
0.634469,0.890642,0,0,1,no
0.634469,0.890642,0,0,1,no
0.634469,0.890642,0.03125,0,1,no
0.634469,0.890642,0,0,1,no
0.634469,0.890642,0.0625,0,1,no
0.634469,0.890642,0.03125,0,1,no
0.634469,0.890642,0.03125,0,1,no
0.634469,0.890642,0,0,1,no
0.634469,0.890642,0,0,1,no
0.634469,0.890642,0,0,1,no
0.510844,0.714908,0,0,1,no
0.511541,0.718063,0,0,1,no
0.519365,0.71556,0,0,1,no
0.510844,0.714908,0,0,1,no
0.520914,0.73123,0,0,1,no
0.520914,0.73123,0,0,1,no
0.634469,0.890642,0,0,1,no
0.634469,0.890642,0,0,1,no
0.634469,0.890642,0,0,1,no
0.634469,0.890642,0,0,1,no
0.634469,0.890642,0,0,1,no
0.502246,0.702938,0,0,1,no
0.504957,0.702503,0,0,1,no
0.634469,0.890642,0,0,1,no
0.634469,0.890642,0,0,1,no
0.510844,0.714908,0,0,1,no
0.510844,0.714908,0,0,1,no
0.634469,0.890642,0,0,1,no
0.634469,0.890642,0,0,1,no
0.634469,0.890642,0,0,1,no
0.634469,0.890642,0,0,1,no
0.634469,0.890642,0,0,1,no
0.634469,0.890642,0,0,1,no
0.634469,0.890642,0,0,1,no
0.634469,0.890642,0,0,1,no
0.634469,0.890642,0,0,1,no
0.634469,0.890642,0,0,1,no
0.634469,0.890642,0,0,1,no
0.634469,0.890642,0,0,1,no
0.511541,0.718063,0,0,1,yes
0.501627,0.702503,0,0,1,no
0.511541,0.718063,0,0,1,yes
0.511541,0.718063,0.03125,0,1,yes
0.511541,0.718063,0,0,1,no
0.511541,0.718063,0,0,1,no
0.511541,0.718063,0,0,1,no
0.511541,0.718063,0,0,1,no
0.511541,0.718063,0,0,1,no
0.511541,0.718063,0,0,1,no
0.511541,0.718063,0.03125,0,1,no
0.511541,0.718063,0.03125,0,1,no
0.511541,0.718063,0,0,1,no
0.511541,0.718063,0,0,1,no
0.511541,0.718063,0,0,1,no
0.511541,0.718063,0,0,1,no
0.634469,0.890642,0,0,1,no
0.511541,0.718063,0,0,1,no
0.511541,0.718063,0,0,1,no
0.511541,0.718063,0,0,1,no
0.511541,0.718063,0,0,1,no
0.511541,0.718063,0.03125,0,1,yes
0.511541,0.718063,0,0,1,no
0.511541,0.718063,0,0,1,no
0.511541,0.718063,0,0,1,no
0.501627,0.702503,0,0,1,no
0.504725,0.70272,0.03125,0,1,no
0.501627,0.702612,0.03125,0,1,no
0.501239,0.702829,0.0625,0,1,yes
0.500775,0.702503,0.03125,0,1,no
0.634469,0.890642,0.4375,0.666667,1,no
0.512858,0.71099,0.15625,0.333333,1,yes
0.520914,0.73123,0,0,1,no
0.520914,0.73123,0,0,1,no
0.520914,0.73123,0.03125,0,1,no
0.520914,0.73123,0,0,1,no
0.634469,0.890642,0,0,1,no
0.634469,0.890642,0,0,1,no
0.634469,0.890642,0.03125,0,1,no
0.634469,0.890642,0,0,1,no
0.634469,0.890642,0,0,1,no
0.634469,0.890642,0,0,1,no
0.634469,0.890642,0,0,1,no
0.634469,0.890642,0.03125,0,1,no
0.634469,0.890642,0.0625,0,1,no
0.634469,0.890642,0.03125,0,1,no
0.634469,0.890642,0,0,1,no
0.502246,0.702938,0,0,1,no
0.504957,0.702503,0,0,1,no
0.506429,0.702829,0,0,1,no
0.507901,0.702503,0,0,1,no
0.634469,0.890642,0,0,1,no
0.634469,0.890642,0,0,1,no
0.634469,0.890642,0,0,1,no
0.634469,0.890642,0,0,1,no
0.510844,0.714908,0,0,1,no
0.510844,0.714908,0,0,1,no
0.510844,0.714908,0.03125,0,1,no
0.510844,0.714908,0,0,1,no
0.634469,0.890642,0,0,1,no
0.634469,0.890642,0,0,1,no
0.634469,0.890642,0.03125,0,1,no
0.634469,0.890642,0,0,1,no
0.634469,0.890642,0.03125,0,1,no
0.634469,0.890642,0,0,1,no
0.634469,0.890642,0,0,1,no
0.634469,0.890642,0,0,1,no
0.634469,0.890642,0.03125,0,1,no
0.634469,0.890642,0,0,1,no
0.634469,0.890642,0.03125,0,1,no
0.634469,0.890642,0,0,1,no
0.634469,0.890642,0,0,1,no
0.634469,0.890642,0,0,1,no
0.634469,0.890642,0.03125,0,1,no
0.634469,0.890642,0,0,1,no
0.634469,0.890642,0.03125,0,1,no
0.634469,0.890642,0,0,1,no
0.634469,0.890642,0,0,1,no
0.634469,0.890642,0,0,1,no
0.634469,0.890642,0.03125,0,1,no
0.634469,0.890642,0,0,1,no
0.634469,0.890642,0.03125,0,1,no
0.634469,0.890642,0,0,1,no
0.634469,0.890642,0,0,1,no
0.634469,0.890642,0,0,1,no
0.634469,0.890642,0.03125,0,1,no
0.634469,0.890642,0,0,1,no
0.634469,0.890642,0.03125,0,1,no
0.634469,0.890642,0,0,1,no
0.634469,0.890642,0,0,1,no
0.634469,0.890642,0,0,1,no
0.634469,0.890642,0.03125,0,1,no
0.634469,0.890642,0,0,1,no
0.634469,0.890642,0.03125,0,1,no
0.634469,0.890642,0,0,1,no
0.634469,0.890642,0,0,1,no
0.634469,0.890642,0,0,1,no
0.510844,0.714908,0,0,1,no
0.511541,0.718063,0,0,1,no
0.519365,0.71556,0,0,1,no
0.510844,0.714908,0,0,1,no
0.634469,0.890642,0,0,1,no
0.634469,0.890642,0,0,1,no
0.511541,0.718063,0,0,1,yes
0.501627,0.702503,0,0,1,no
0.511541,0.718063,0,0,1,yes
0.511541,0.718063,0.03125,0,1,yes
0.511541,0.718063,0,0,1,no
0.511541,0.718063,0,0,1,no
0.511541,0.718063,0,0,1,no
0.511541,0.718063,0,0,1,no
0.511541,0.718063,0,0,1,no
0.511541,0.718063,0,0,1,no
0.511541,0.718063,0.03125,0,1,no
0.511541,0.718063,0.03125,0,1,no
0.511541,0.718063,0,0,1,no
0.511541,0.718063,0,0,1,no
0.511541,0.718063,0,0,1,no
0.511541,0.718063,0,0,1,no
0.634469,0.890642,0,0,1,no
0.511541,0.718063,0,0,1,no
0.511541,0.718063,0,0,1,no
0.511541,0.718063,0,0,1,no
0.511541,0.718063,0,0,1,no
0.511541,0.718063,0.03125,0,1,yes
0.511541,0.718063,0,0,1,no
0.511541,0.718063,0,0,1,no
0.511541,0.718063,0,0,1,no
0.501627,0.702503,0,0,1,no
0.504725,0.70272,0.03125,0,1,no
0.501627,0.702612,0.03125,0,1,no
0.501239,0.702829,0.0625,0,1,yes
0.500775,0.702503,0.03125,0,1,no
0.634469,0.890642,0.0625,0,1,no
0.512858,0.71099,0.15625,0.333333,1,yes
0.634469,0.890642,0,0,1,no
0.634469,0.890642,0,0,1,no
0.634469,0.890642,0.03125,0,1,no
0.634469,0.890642,0,0,1,no
0.634469,0.890642,0.03125,0,1,no
0.634469,0.890642,0,0,1,no
0.634469,0.890642,0,0,1,no
0.634469,0.890642,0,0,1,no
0.510844,0.714908,0,0,1,no
0.511541,0.718063,0,0,1,no
0.519365,0.71556,0,0,1,no
0.510844,0.714908,0,0,1,no
0.634469,0.890642,0,0,1,no
0.634469,0.890642,0.125,0,1,yes
0.634469,0.890642,0,0,1,no
0.634469,0.890642,0,0,1,no
0.634469,0.890642,0,0,1,no
0.511541,0.718063,0,0,1,no
0.519365,0.71556,0,0,1,no
0.634469,0.890642,0.03125,0,1,no
0.634469,0.890642,0,0,1,no
0.510844,0.714908,0,0,1,no
0.510844,0.714908,0,0,1,no
0.512084,0.716649,0,0,1,no
0.512084,0.716649,0,0,1,no
0.512393,0.71926,0,0,1,no
0.512393,0.71926,0,0,1,no
0.634469,0.890642,0,0,1,no
0.634469,0.890642,0,0,1,no
0.511541,0.718063,0,0,1,yes
0.501627,0.702503,0,0,1,no
0.511541,0.718063,0,0,1,yes
0.511541,0.718063,0.03125,0,1,yes
0.511541,0.718063,0,0,1,no
0.511541,0.718063,0,0,1,no
0.511541,0.718063,0,0,1,no
0.511541,0.718063,0,0,1,no
0.511541,0.718063,0,0,1,no
0.511541,0.718063,0,0,1,no
0.511541,0.718063,0.03125,0,1,no
0.511541,0.718063,0.03125,0,1,no
0.511541,0.718063,0,0,1,no
0.511541,0.718063,0,0,1,no
0.511541,0.718063,0,0,1,no
0.511541,0.718063,0,0,1,no
0.501936,0.702176,0,0,1,no
0.511541,0.718063,0,0,1,no
0.511541,0.718063,0,0,1,no
0.511541,0.718063,0,0,1,no
0.511541,0.718063,0,0,1,no
0.511541,0.718063,0.03125,0,1,yes
0.511541,0.718063,0,0,1,no
0.511541,0.718063,0,0,1,no
0.511541,0.718063,0,0,1,no
0.501627,0.702503,0,0,1,no
0.504725,0.70272,0.03125,0,1,no
0.501627,0.702612,0.03125,0,1,no
0.501239,0.702829,0.0625,0,1,yes
0.500775,0.702503,0.03125,0,1,no
0.512626,0.71741,0.15625,0,1,no
0.512858,0.71099,0.15625,0.333333,1,yes
0.510844,0.714908,0,0,1,no
0.510844,0.714908,0,0,1,no
0.510844,0.714908,0.03125,0,1,no
0.510844,0.714908,0,0,1,no
0.512084,0.716649,0,0,1,no
0.512084,0.716649,0,0,1,no
0.512084,0.716649,0.03125,0,1,no
0.512084,0.716649,0,0,1,no
0.512393,0.71926,0,0,1,no
0.512393,0.71926,0,0,1,no
0.512393,0.71926,0,0,1,no
0.512393,0.71926,0,0,1,no
0.512393,0.71926,0,0,1,no
0.512393,0.71926,0,0,1,no
0.512393,0.71926,0,0,1,no
0.512393,0.71926,0,0,1,no
0.512393,0.71926,0,0,1,no
0.512393,0.71926,0,0,1,no
0.510844,0.714908,0,0,1,no
0.511541,0.718063,0,0,1,no
0.519365,0.71556,0,0,1,no
0.510844,0.714908,0,0,1,no
0.512084,0.716649,0,0,1,no
0.512084,0.716649,0,0,1,no
0.512393,0.71926,0,0,1,no
0.512393,0.71926,0,0,1,no
0.511541,0.718063,0,0,1,yes
0.501627,0.702503,0,0,1,no
0.511541,0.718063,0,0,1,yes
0.511541,0.718063,0.03125,0,1,yes
0.511541,0.718063,0,0,1,no
0.511541,0.718063,0,0,1,no
0.511541,0.718063,0,0,1,no
0.511541,0.718063,0,0,1,no
0.511541,0.718063,0,0,1,no
0.511541,0.718063,0,0,1,no
0.511541,0.718063,0.03125,0,1,no
0.511541,0.718063,0.03125,0,1,no
0.511541,0.718063,0,0,1,no
0.511541,0.718063,0,0,1,no
0.511541,0.718063,0,0,1,no
0.511541,0.718063,0,0,1,no
0.502324,0.70272,0,0,1,no
0.511541,0.718063,0,0,1,no
0.511541,0.718063,0,0,1,no
0.511541,0.718063,0,0,1,no
0.511541,0.718063,0,0,1,no
0.511541,0.718063,0.03125,0,1,yes
0.511541,0.718063,0,0,1,no
0.511541,0.718063,0,0,1,no
0.511541,0.718063,0,0,1,no
0.501627,0.702503,0,0,1,no
0.504725,0.70272,0.03125,0,1,no
0.501627,0.702612,0.03125,0,1,no
0.501239,0.702829,0.0625,0,1,yes
0.500775,0.702503,0.03125,0,1,no
0.512084,0.716649,0.09375,0,1,no
0.512858,0.71099,0.15625,0.333333,1,yes
0.512084,0.716649,0,0,1,no
0.512084,0.716649,0,0,1,no
0.512084,0.716649,0.03125,0,1,no
0.512084,0.716649,0,0,1,no
0.512084,0.716649,0,0,1,no
0.512084,0.716649,0,0,1,no
0.512084,0.716649,0,0,1,no
0.512548,0.716975,0,0,1,no
0.511929,0.718607,0,0,1,no
0.511929,0.718607,0,0,1,no
0.510844,0.714908,0,0,1,no
0.511541,0.718063,0,0,1,no
0.519365,0.71556,0,0,1,no
0.510844,0.714908,0,0,1,no
0.510844,0.714908,0,0,1,no
0.510844,0.714908,0,0,1,no
0.512084,0.716649,0,0,1,no
0.512084,0.716649,0,0,1,no
0.511541,0.718063,0,0,1,yes
0.501627,0.702503,0,0,1,no
0.511541,0.718063,0,0,1,yes
0.511541,0.718063,0.03125,0,1,yes
0.511541,0.718063,0,0,1,no
0.511541,0.718063,0,0,1,no
0.511541,0.718063,0,0,1,no
0.511541,0.718063,0,0,1,no
0.511541,0.718063,0,0,1,no
0.511541,0.718063,0,0,1,no
0.511541,0.718063,0.03125,0,1,no
0.511541,0.718063,0.03125,0,1,no
0.511541,0.718063,0,0,1,no
0.511541,0.718063,0,0,1,no
0.511541,0.718063,0,0,1,no
0.511541,0.718063,0,0,1,no
0.503021,0.702503,0,0,1,no
0.511541,0.718063,0,0,1,no
0.511541,0.718063,0,0,1,no
0.511541,0.718063,0,0,1,no
0.511541,0.718063,0,0,1,no
0.511541,0.718063,0.03125,0,1,yes
0.511541,0.718063,0,0,1,no
0.511541,0.718063,0,0,1,no
0.511541,0.718063,0,0,1,no
0.501627,0.702503,0,0,1,no
0.504725,0.70272,0.03125,0,1,no
0.501627,0.702612,0.03125,0,1,no
0.501239,0.702829,0.0625,0,1,yes
0.500775,0.702503,0.03125,0,1,no
0.510844,0.714908,0.09375,0,1,no
0.512858,0.71099,0.15625,0.333333,1,yes
0.510844,0.714908,0,0,1,no
0.510844,0.714908,0,0,1,no
0.510844,0.714908,0.03125,0,1,no
0.510844,0.714908,0,0,1,no
0.512084,0.716649,0,0,1,no
0.512084,0.716649,0,0,1,no
0.512084,0.716649,0.03125,0,1,no
0.512084,0.716649,0,0,1,no
0.512084,0.716649,0.03125,0,1,no
0.512084,0.716649,0,0,1,no
0.508521,0.713819,0,0,1,no
0.508521,0.713819,0,0,1,no
0.510844,0.714908,0,0,1,no
0.511541,0.718063,0,0,1,no
0.519365,0.71556,0,0,1,no
0.510844,0.714908,0,0,1,no
0.510844,0.714908,0,0,1,no
0.510844,0.714908,0,0,1,no
0.511541,0.718063,0,0,1,yes
0.501627,0.702503,0,0,1,no
0.511541,0.718063,0,0,1,yes
0.511541,0.718063,0.03125,0,1,yes
0.511541,0.718063,0,0,1,no
0.511541,0.718063,0,0,1,no
0.511541,0.718063,0,0,1,no
0.511541,0.718063,0,0,1,no
0.511541,0.718063,0,0,1,no
0.511541,0.718063,0,0,1,no
0.511541,0.718063,0.03125,0,1,no
0.511541,0.718063,0.03125,0,1,no
0.511541,0.718063,0,0,1,no
0.511541,0.718063,0,0,1,no
0.511541,0.718063,0,0,1,no
0.511541,0.718063,0,0,1,no
0.503098,0.702938,0,0,1,no
0.511541,0.718063,0,0,1,no
0.511541,0.718063,0,0,1,no
0.511541,0.718063,0,0,1,no
0.511541,0.718063,0,0,1,no
0.511541,0.718063,0.03125,0,1,yes
0.511541,0.718063,0,0,1,no
0.511541,0.718063,0,0,1,no
0.511541,0.718063,0,0,1,no
0.501627,0.702503,0,0,1,no
0.504725,0.70272,0.03125,0,1,no
0.501627,0.702612,0.03125,0,1,no
0.501239,0.702829,0.0625,0,1,yes
0.500775,0.702503,0.03125,0,1,no
0.510844,0.714908,0.0625,0,1,no
0.512858,0.71099,0.15625,0.333333,1,yes
0.510844,0.714908,0,0,1,no
0.510844,0.714908,0,0,1,no
0.510844,0.714908,0.03125,0,1,no
0.510844,0.714908,0,0,1,no
0.508521,0.713819,0,0,1,no
0.508521,0.713819,0,0,1,no
0.510844,0.714908,0,0,1,no
0.511541,0.718063,0,0,1,no
0.519365,0.71556,0,0,1,no
0.510844,0.714908,0,0,1,no
0.510844,0.714908,0,0,1,no
0.510844,0.714908,0,0,1,no
0.511541,0.718063,0,0,1,yes
0.501627,0.702503,0,0,1,no
0.511541,0.718063,0,0,1,yes
0.511541,0.718063,0.03125,0,1,yes
0.511541,0.718063,0,0,1,no
0.511541,0.718063,0,0,1,no
0.511541,0.718063,0,0,1,no
0.511541,0.718063,0,0,1,no
0.511541,0.718063,0,0,1,no
0.511541,0.718063,0,0,1,no
0.511541,0.718063,0.03125,0,1,no
0.511541,0.718063,0.03125,0,1,no
0.511541,0.718063,0,0,1,no
0.511541,0.718063,0,0,1,no
0.511541,0.718063,0,0,1,no
0.511541,0.718063,0,0,1,no
0.511232,0.702503,0,0,1,no
0.511541,0.718063,0,0,1,no
0.511541,0.718063,0,0,1,no
0.511541,0.718063,0,0,1,no
0.511541,0.718063,0,0,1,no
0.511541,0.718063,0.03125,0,1,yes
0.511541,0.718063,0,0,1,no
0.511541,0.718063,0,0,1,no
0.511541,0.718063,0,0,1,no
0.501627,0.702503,0,0,1,no
0.504725,0.70272,0.03125,0,1,no
0.501627,0.702612,0.03125,0,1,no
0.501239,0.702829,0.0625,0,1,yes
0.500775,0.702503,0.03125,0,1,no
0.510844,0.714908,0.0625,0,1,no
0.512858,0.71099,0.15625,0.333333,1,yes
0.510844,0.714908,0,0,1,no
0.510844,0.714908,0,0,1,no
0.510844,0.714908,0.03125,0,1,no
0.510844,0.714908,0,0,1,no
0.508521,0.713819,0,0,1,no
0.508521,0.713819,0,0,1,no
0.510844,0.714908,0,0,1,no
0.511541,0.718063,0,0,1,no
0.519365,0.71556,0,0,1,no
0.510844,0.714908,0,0,1,no
0.510844,0.714908,0,0,1,no
0.510844,0.714908,0,0,1,no
0.511541,0.718063,0,0,1,yes
0.501627,0.702503,0,0,1,no
0.511541,0.718063,0,0,1,yes
0.511541,0.718063,0.03125,0,1,yes
0.511541,0.718063,0,0,1,no
0.511541,0.718063,0,0,1,no
0.511541,0.718063,0,0,1,no
0.511541,0.718063,0,0,1,no
0.511541,0.718063,0,0,1,no
0.511541,0.718063,0,0,1,no
0.511541,0.718063,0.03125,0,1,no
0.511541,0.718063,0.03125,0,1,no
0.511541,0.718063,0,0,1,no
0.511541,0.718063,0,0,1,no
0.511541,0.718063,0,0,1,no
0.511541,0.718063,0,0,1,no
0.503641,0.704026,0,0,1,no
0.511541,0.718063,0,0,1,no
0.511541,0.718063,0,0,1,no
0.511541,0.718063,0,0,1,no
0.511541,0.718063,0,0,1,no
0.511541,0.718063,0.03125,0,1,yes
0.511541,0.718063,0,0,1,no
0.511541,0.718063,0,0,1,no
0.511541,0.718063,0,0,1,no
0.501627,0.702503,0,0,1,no
0.504725,0.70272,0.03125,0,1,no
0.501627,0.702612,0.03125,0,1,no
0.501239,0.702829,0.0625,0,1,yes
0.500775,0.702503,0.03125,0,1,no
0.517041,0.723613,0.0625,0,1,no
0.512858,0.71099,0.15625,0.333333,1,yes
0.510844,0.714908,0,0,1,no
0.510844,0.714908,0,0,1,no
0.510844,0.714908,0.03125,0,1,no
0.510844,0.714908,0,0,1,no
0.517041,0.723613,0,0,1,no
0.517041,0.723613,0,0,1,no
0.510844,0.714908,0,0,1,no
0.511541,0.718063,0,0,1,no
0.519365,0.71556,0,0,1,no
0.510844,0.714908,0,0,1,no
0.520914,0.73123,0,0,1,no
0.520914,0.73123,0,0,1,no
0.520914,0.73123,0,0,1,no
0.520914,0.73123,0,0,1,no
0.502246,0.702938,0,0,1,no
0.504957,0.702503,0,0,1,no
0.50062,0.702394,0,0,1,no
0.513091,0.702829,0,0,1,no
0.501162,0.702394,0,0,1,no
0.501084,0.702829,0,0,1,no
0.510844,0.714908,0,0,1,no
0.510844,0.714908,0,0,1,no
0.510844,0.714908,0,0,1,no
0.510844,0.714908,0,0,1,no
0.511541,0.718063,0,0,1,yes
0.501627,0.702503,0,0,1,no
0.511541,0.718063,0,0,1,yes
0.511541,0.718063,0.03125,0,1,yes
0.511541,0.718063,0,0,1,no
0.511541,0.718063,0,0,1,no
0.511541,0.718063,0,0,1,no
0.511541,0.718063,0,0,1,no
0.511541,0.718063,0,0,1,no
0.511541,0.718063,0,0,1,no
0.511541,0.718063,0.03125,0,1,no
0.511541,0.718063,0.03125,0,1,no
0.511541,0.718063,0,0,1,no
0.511541,0.718063,0,0,1,no
0.511541,0.718063,0,0,1,no
0.511541,0.718063,0,0,1,no
0.520914,0.73123,0,0,1,no
0.511541,0.718063,0,0,1,no
0.511541,0.718063,0,0,1,no
0.511541,0.718063,0,0,1,no
0.511541,0.718063,0,0,1,no
0.511541,0.718063,0.03125,0,1,yes
0.511541,0.718063,0,0,1,no
0.511541,0.718063,0,0,1,no
0.511541,0.718063,0,0,1,no
0.501627,0.702503,0,0,1,no
0.504725,0.70272,0.03125,0,1,no
0.501627,0.702612,0.03125,0,1,no
0.501239,0.702829,0.0625,0,1,yes
0.500775,0.702503,0.03125,0,1,no
0.520914,0.73123,0.25,0.333333,1,no
0.512858,0.71099,0.15625,0.333333,1,yes
0.520914,0.73123,0,0,1,no
0.520914,0.73123,0,0,1,no
0.520914,0.73123,0.03125,0,1,no
0.520914,0.73123,0,0,1,no
0.520914,0.73123,0,0,1,no
0.520914,0.73123,0,0,1,no
0.522308,0.731774,0.03125,0,1,no
0.502246,0.702938,0,0,1,no
0.502246,0.702938,0,0,1,no
0.504957,0.702503,0,0,1,no
0.506429,0.702829,0,0,1,no
0.507901,0.702503,0,0,1,no
0.50062,0.702394,0,0,1,no
0.513091,0.702829,0,0,1,no
0.503098,0.702938,0.03125,0,1,no
0.501549,0.702503,0,0,1,no
0.501162,0.702394,0,0,1,no
0.501084,0.702829,0,0,1,no
0.511929,0.715778,0.03125,0,1,no
0.510844,0.714908,0,0,1,no
0.510844,0.714908,0.03125,0,1,no
0.510844,0.714908,0,0,1,no
0.510844,0.714908,0,0,1,no
0.510844,0.714908,0,0,1,no
0.510844,0.714908,0.03125,0,1,no
0.510844,0.714908,0,0,1,no
0.510844,0.714908,0,0,1,no
0.510844,0.714908,0,0,1,no
0.510844,0.714908,0.03125,0,1,no
0.510844,0.714908,0,0,1,no
0.510844,0.714908,0,0,1,no
0.510844,0.714908,0,0,1,no
0.510844,0.714908,0,0,1,no
0.511541,0.718063,0,0,1,no
0.519365,0.71556,0,0,1,no
0.510844,0.714908,0,0,1,no
0.512084,0.716649,0,0,1,no
0.512084,0.716649,0,0,1,no
0.510844,0.714908,0,0,1,no
0.510844,0.714908,0,0,1,no
0.511541,0.718063,0,0,1,yes
0.501627,0.702503,0,0,1,no
0.511541,0.718063,0,0,1,yes
0.511541,0.718063,0.03125,0,1,yes
0.511541,0.718063,0,0,1,no
0.511541,0.718063,0,0,1,no
0.511541,0.718063,0,0,1,no
0.511541,0.718063,0,0,1,no
0.511541,0.718063,0,0,1,no
0.511541,0.718063,0,0,1,no
0.511541,0.718063,0.03125,0,1,no
0.511541,0.718063,0.03125,0,1,no
0.511541,0.718063,0,0,1,no
0.511541,0.718063,0,0,1,no
0.511541,0.718063,0,0,1,no
0.511541,0.718063,0,0,1,no
0.510147,0.716104,0,0,1,no
0.511541,0.718063,0,0,1,no
0.511541,0.718063,0,0,1,no
0.511541,0.718063,0,0,1,no
0.511541,0.718063,0,0,1,no
0.511541,0.718063,0.03125,0,1,yes
0.511541,0.718063,0,0,1,no
0.511541,0.718063,0,0,1,no
0.511541,0.718063,0,0,1,no
0.501627,0.702503,0,0,1,no
0.504725,0.70272,0.03125,0,1,no
0.501627,0.702612,0.03125,0,1,no
0.501239,0.702829,0.0625,0,1,yes
0.500775,0.702503,0.03125,0,1,no
0.503408,0.703917,0.09375,0,1,no
0.512858,0.71099,0.15625,0.333333,1,yes
0.512084,0.716649,0,0,1,no
0.512084,0.716649,0,0,1,no
0.512084,0.716649,0.03125,0,1,no
0.512084,0.716649,0,0,1,no
0.512084,0.716649,0.03125,0,1,no
0.512084,0.716649,0,0,1,no
0.512084,0.716649,0,0,1,no
0.512084,0.716649,0,0,1,no
0.512084,0.716649,0,0,1,no
0.512084,0.716649,0,0,1,no
0.512084,0.716649,0,0,1,no
0.512084,0.716649,0,0,1,no
0.510844,0.714908,0,0,1,no
0.511541,0.718063,0,0,1,no
0.519365,0.71556,0,0,1,no
0.510844,0.714908,0,0,1,no
0.510844,0.714908,0,0,1,no
0.510844,0.714908,0,0,1,no
0.510844,0.714908,0,0,1,no
0.510844,0.714908,0,0,1,no
0.511541,0.718063,0,0,1,yes
0.501627,0.702503,0,0,1,no
0.511541,0.718063,0,0,1,yes
0.511541,0.718063,0.03125,0,1,yes
0.511541,0.718063,0,0,1,no
0.511541,0.718063,0,0,1,no
0.511541,0.718063,0,0,1,no
0.511541,0.718063,0,0,1,no
0.511541,0.718063,0,0,1,no
0.511541,0.718063,0,0,1,no
0.511541,0.718063,0.03125,0,1,no
0.511541,0.718063,0.03125,0,1,no
0.511541,0.718063,0,0,1,no
0.511541,0.718063,0,0,1,no
0.511541,0.718063,0,0,1,no
0.511541,0.718063,0,0,1,no
0.511696,0.718281,0,0,1,no
0.511541,0.718063,0,0,1,no
0.511541,0.718063,0,0,1,no
0.511541,0.718063,0,0,1,no
0.511541,0.718063,0,0,1,no
0.511541,0.718063,0.03125,0,1,yes
0.511541,0.718063,0,0,1,no
0.511541,0.718063,0,0,1,no
0.511541,0.718063,0,0,1,no
0.501627,0.702503,0,0,1,no
0.504725,0.70272,0.03125,0,1,no
0.501627,0.702612,0.03125,0,1,no
0.501239,0.702829,0.0625,0,1,yes
0.500775,0.702503,0.03125,0,1,no
0.503796,0.703156,0.09375,0,1,yes
0.512858,0.71099,0.15625,0.333333,1,yes
0.510844,0.714908,0,0,1,no
0.510844,0.714908,0,0,1,no
0.510844,0.714908,0,0,1,no
0.510844,0.714908,0,0,1,no
0.510844,0.714908,0,0,1,no
0.510844,0.714908,0,0,1,no
0.510844,0.714908,0.03125,0,1,no
0.510844,0.714908,0,0,1,no
0.510844,0.714908,0.03125,0,1,no
0.510844,0.714908,0,0,1,no
0.510844,0.714908,0,0,1,no
0.510844,0.714908,0,0,1,no
0.510844,0.714908,0,0,1,no
0.511541,0.718063,0,0,1,no
0.519365,0.71556,0,0,1,no
0.510844,0.714908,0,0,1,no
0.510534,0.709358,0,0,1,no
0.510534,0.709358,0,0,1,no
0.510534,0.709358,0,0,1,no
0.511541,0.718063,0,0,1,yes
0.501627,0.702503,0,0,1,no
0.511541,0.718063,0,0,1,yes
0.511541,0.718063,0.03125,0,1,yes
0.511541,0.718063,0,0,1,no
0.511541,0.718063,0,0,1,no
0.511541,0.718063,0,0,1,no
0.511541,0.718063,0,0,1,no
0.511541,0.718063,0,0,1,no
0.511541,0.718063,0,0,1,no
0.511541,0.718063,0.03125,0,1,no
0.511541,0.718063,0.03125,0,1,no
0.511541,0.718063,0,0,1,no
0.511541,0.718063,0,0,1,no
0.511541,0.718063,0,0,1,no
0.511541,0.718063,0,0,1,no
0.511541,0.718063,0,0,1,no
0.511541,0.718063,0,0,1,no
0.511541,0.718063,0,0,1,no
0.511541,0.718063,0,0,1,no
0.511541,0.718063,0,0,1,no
0.511541,0.718063,0.03125,0,1,yes
0.511541,0.718063,0,0,1,no
0.511541,0.718063,0,0,1,no
0.511541,0.718063,0,0,1,no
0.501627,0.702503,0,0,1,no
0.504725,0.70272,0.03125,0,1,no
0.501627,0.702612,0.03125,0,1,no
0.501239,0.702829,0.0625,0,1,yes
0.500775,0.702503,0.03125,0,1,no
0.501084,0.70272,0.09375,0,1,no
0.512858,0.71099,0.15625,0.333333,1,yes
0.510534,0.709358,0,0,1,no
0.510534,0.709358,0,0,1,no
0.510534,0.709358,0,0,1,no
0.510534,0.709358,0.03125,0,1,no
0.510534,0.709358,0,0,1,no
0.510534,0.709358,0.0625,0,1,no
0.510534,0.709358,0.03125,0,1,no
0.510534,0.709358,0.03125,0,1,no
0.510534,0.709358,0,0,1,no
0.519365,0.71556,0,0,1,no
1,0.701959,0,0.333333,1,yes
1,0.701959,0,0,1,no
0,0,0,0,0,no
0,0,0,0,0,no
0,0,0.125,0.333333,0,no
0,0,0,0,0,no
0,0,0,0,0,no
0.00031,0.000109,0.125,0,0.00031,no
0,0,0.0625,0.333333,0,no
0,0,0,0,0,no
0,0,0,0,0,no
0,0,0,0,0,no
0,0,0,0,0,no
0,0,0,0,0,no
0,0,0,0,0,no
0.00093,0.000326,0.0625,0,0.00062,no
0,0,0,0,0,no
0,0,0,0,0,no
0,0,0,0,0,no
0,0,0,0,0,no
0.00031,0.000109,0,0,0.00031,no
0,0,0,0,0,no
0,0,0,0,0,no
0.00093,0.000435,0.09375,0.333333,0.00093,no
0,0,0,0,0,no
0,0,0,0,0,no
0,0,0.0625,0,0,no
0,0,0,0,0,no
0,0,0.21875,0.333333,0,yes
0,0,0,0,0,no
0,0,0,0,0,no
0,0,0,0,0,no
0,0,0.0625,0.333333,0,no
0,0,0.0625,0,0,yes
0,0,0,0,0,no
0,0,0,0,0,no
0,0,0,0,0,no
0,0,0,0,0,no
0,0,0,0,0,no
0,0,0,0,0,no
0,0,0,0,0,no
0.000775,0.000435,0.03125,0.333333,0.000775,yes
0,0,0,0,0,no
0,0,0.0625,0,0,no
0,0,0,0,0,yes
0,0,0.09375,0,0,yes
0.00031,0.000109,0,0,0.00031,yes
0,0,0.125,0.333333,0,yes
0,0,0.0625,0,0,yes
0,0,0.09375,0,0,yes
0,0,0.125,0.333333,0,yes
0,0,0,0.333333,0,no
0,0,0.25,0.333333,0,yes
0,0,0.0625,0,0,yes
0,0,0.15625,0.333333,0,yes
0,0,0.0625,0,0,yes
0,0,0.0625,0,0,yes
0,0,0.09375,0.333333,0,yes
0.001859,0.000326,0.21875,0.333333,0.000775,yes
0.000775,0.000109,0.03125,0.333333,0.000775,no
0,0,0.0625,0,0,yes
0,0,0.15625,0.333333,0,yes
0,0,0,0,0,no
0,0,0,0,0,no
0,0,0.0625,0,0,yes
0,0,0.03125,0,0,no
0,0,0.15625,0.333333,0,yes
0,0,0.03125,0,0,no
0,0,0,0.333333,0,yes
0,0,0,0,0,no
0,0,0,0,0,no
0,0,0,0,0,no
0,0,0,0,0,no
0,0,0,0,0,no
0,0,0,0,0,no
0,0,0,0,0,no
0,0,0.125,0.333333,0,no
0,0,0.03125,0,0,no
0,0,0.03125,0,0,no
0,0,0.03125,0,0,no
0.000155,0.000109,0.21875,0.333333,0.000155,no
0,0,0,0,0,no
0,0,0,0,0,no
0,0,0,0,0,no
0,0,0.03125,0,0,no
0,0,0.25,0.333333,0,yes
0.003408,0.002067,0.59375,0.666667,0.002789,no
0,0,0,0,0,no
0,0,0,0,0,no
0,0,0.09375,0.333333,0,no
0,0,0.03125,0,0,no
0,0,0.09375,0,0,no
0,0,0,0,0,no
0,0,0,0,0,no
0,0,0,0,0,no
0,0,0.03125,0,0,no
0,0,0.125,0.333333,0,yes
0,0,0.09375,0,0,no
0,0,0.125,0,0,no
0,0,0.21875,0.333333,0,yes
0,0,0.40625,0.666667,0,no
0,0,0.15625,0.333333,0,no
0,0,0.03125,0,0,no
0.004648,0.001632,0,0,0.004648,no
0.004648,0.001632,0,0,0.004648,no
0.004648,0.001632,0,0,0.004648,no
0.003408,0.001197,0.09375,0,0.00093,yes
0.002789,0.000762,0.03125,0,0.001549,yes
0.003098,0.001306,0,0,0.001239,no
0.001549,0.001088,0,0,0.001859,no
0.003718,0.002612,0.03125,0.333333,0.002169,yes
0.001549,0.000544,0,0.333333,0.00093,no
0.00093,0.000326,0,0,0.00093,no
0,0,0,0,0,no
0.001239,0.000435,0.03125,0,0.00062,no
0.005577,0.001959,0.03125,0.333333,0.001239,yes
0.00093,0.000218,0,0,0.00093,no
0.000775,0.000544,0,0,0.00093,no
0,0,0,0,0,no
0.003408,0.001197,0,0,0.001239,no
0.002789,0.000979,0,0,0.002789,no
0.006197,0.002176,0.03125,0.333333,0.002169,no
0.001239,0.000435,0,0,0.001239,no
0,0,0,0,0,no
0,0,0,0,0,no
0,0,0,0,0,no
0,0,0,0,0,no
0,0,0,0,0,no
0,0,0.03125,0,0,no
0,0,0.03125,0,0,no
0,0,0.03125,0,0,no
0,0,0,0,0,no
0,0,0,0,0,no
0,0,0,0,0,no
0,0,0,0,0,no
0,0,0,0,0,no
0,0,0,0,0,no
0,0,0,0,0,no
0,0,0,0,0,no
0,0,0,0,0,no
0,0,0,0,0,no
0,0,0,0,0,no
0,0,0.03125,0,0,no
0,0,0,0,0,yes
0,0,0,0,0,no
0.00062,0.000326,0,0,0.00062,no
0,0,0,0,0,no
0,0,0.03125,0,0,no
0,0,0,0,0,no
0,0,0,0,0,no
0,0,0.0625,0,0,no
0,0,0,0,0,no
0,0,0,0,0,no
0,0,0,0,0,no
0,0,0,0,0,no
0,0,0,0,0,no
0.001084,0.000762,0,0,0.001084,no
0.001084,0.000762,0,0,0.001084,no
0,0,0,0,0,no
0,0,0,0,0,no
0.00031,0.000109,0.125,0.333333,0.00031,no
0.00031,0.000218,0,0,0.00031,no
0,0,0,0,0,no
0,0,0,0,0,no
0,0,0,0,0,no
0,0,0,0,0,no
0,0,0,0,0,no
0,0,0,0,0,no
0,0,0,0,0,no
0,0,0.0625,0,0,no
0,0,0.0625,0,0,no
0,0,0,0,0,no
0,0,0,0,0,no
0,0,0,0,0,no
0,0,0,0,0,no
0,0,0,0,0,no
0,0,0,0,0,no
0,0,0,0,0,no
0,0,0.0625,0,0,no
0,0,0.03125,0,0,no
0.00062,0.000435,0,0,0.00062,no
0,0,0,0,0,no
0,0,0,0,0,no
0,0,0,0,0,no
0,0,0,0,0,no
0,0,0,0,0,no
0.00031,0.000218,0,0,0.00031,no
0,0,0,0.333333,0,no
0.000775,0.000544,0,0,0.000775,no
0,0,0,0,0,no
0.00031,0.000109,0,0,0.00031,no
0.00031,0.000109,0,0,0.00031,no
0.000465,0.000544,0,0,0.00062,no
0,0,0.03125,0,0,no
0,0,0,0.333333,0,no
0.00031,0.000109,0.03125,0,0.00031,no
0.00031,0.000109,0,0,0.00031,no
0.00031,0.000109,0.03125,0,0.00031,yes
0,0,0,0,0,no
0,0,0.09375,0.333333,0,no
0,0,0,0,0,no
0.00031,0.000109,0.0625,0,0.00031,yes
0.00062,0.000435,0.125,0.333333,0.00062,no
0.00031,0.000109,0.03125,0,0.00031,no
0,0,0,0,0,no
0.00031,0.000109,0,0.333333,0.00031,no
0,0,0,0,0,no
0,0,0,0,0,no
0,0,0,0,0,no
0,0,0,0,0,no
0,0,0,0,0,no
0,0,0,0,0,no
0.00031,0.000109,0.03125,0,0.00031,no
0.00093,0.000326,0.0625,0.333333,0.00062,no
0,0,0.03125,0,0,no
0,0,0,0,0,no
0.000775,0.000653,0.0625,0.333333,0.00062,no
0,0,0,0,0,no
0,0,0,0,0,no
0,0,0,0,0,no
0.00031,0.000109,0,0,0.00031,no
0,0,0,0,0,no
0,0,0,0,0,no
0.00031,0.000109,0,0,0.00031,no
0.001239,0.000435,0,0,0.001239,no
0.00031,0.000109,0,0,0.00031,no
0.00031,0.000109,0,0,0.00031,no
0,0,0,0,0,no
0,0,0,0,0,no
0,0,0,0,0,no
0.002479,0.00185,0.03125,0.333333,0.003098,no
0.002401,0.001741,0,0,0.003098,no
0.001627,0.001197,0.03125,0,0.003098,no
0,0,0,0,0,no
0,0,0,0,0,no
0.000155,0.000109,0,0,0.000155,no
0.00031,0.000218,0,0,0.00031,no
0.000232,0.000218,0.03125,0,0.00031,no
0,0,0,0,0,no
0,0,0,0,0,no
0.00031,0.000109,0,0,0.00031,no
0,0,0,0,0,no
0,0,0,0,0,no
0,0,0,0,0,no
0,0,0,0,0,no
0.000155,0.000109,0,0,0.000155,no
0.002014,0.001632,0.03125,0.333333,0.001549,yes
0.000852,0.000653,0,0,0.001549,no
0.000155,0.000109,0,0,0.000155,yes
0.000155,0.000109,0,0.333333,0.000155,no
0,0,0.03125,0,0,no
0.001704,0.001632,0.125,0.333333,0.00062,yes
0.000155,0.000109,0,0,0.000155,no
0.001007,0.000871,0.0625,0.333333,0.00062,yes
0.000155,0.000109,0,0,0.000155,no
0.000775,0.000435,0.03125,0.333333,0.00031,yes
0.000155,0.000109,0,0,0.000155,no
0.00031,0.000109,0,0,0.00031,yes
0,0,0,0,0,no
0,0,0,0,0,no
0,0,0,0,0,no
0,0,0,0,0,no
0.00062,0.000326,0.09375,0.333333,0.00062,no
0.00062,0.000326,0.03125,0,0.00031,no
0.000465,0.000326,0,0,0.000465,no
0.000671,0.001088,0.09375,0.333333,0.001084,no
0.000569,0.000979,0.03125,0,0.001084,no
0,0,0.0625,0,0,no
0,0,0,0,0,no
0.001239,0.000326,0.0625,0,0.002169,no
0.003021,0.006964,0.125,0.333333,0.006971,no
0.006971,0.004897,0.09375,0,0.006971,yes
0.006971,0.004897,0.15625,0.333333,0.006971,no
0.001239,0.000544,0,0.333333,0.000775,no
0,0,0,0,0,no
0.000349,0.000762,0.09375,0.333333,0.00031,no
0.00031,0.000544,0.0625,0.333333,0.00031,no
0,0,0,0,0,no
0,0,0,0,0,no
0.00031,0.000109,0.125,0.333333,0.00031,no
0,0,0,0,0,yes
0,0,0,0,0,no
0,0,0,0,0,no
0,0,0,0,0,no
0,0,0,0,0,no
0,0,0,0,0,no
0,0,0,0,0,no
0,0,0,0,0,no
0,0,0,0,0,no
0,0,0,0,0,no
0,0,0,0,0,no
0,0,0,0,0,no
0,0,0,0,0,no
0,0,0,0,0,no
0,0,0,0,0,no
0,0,0,0,0,no
0,0,0,0,0,no
0.00031,0.000109,0.03125,0,0.00031,no
0,0,0.03125,0.333333,0,no
0,0,0,0,0,no
0,0,0,0,0,no
0,0,0,0,0,no
0,0,0,0,0,no
0,0,0,0,0,no
0,0,0,0,0,no
0,0,0,0,0,no
0,0,0,0,0,no
0,0,0.15625,0.333333,0,yes
0.000775,0.000326,0.09375,0,0.000465,no
0,0,0,0,0,no
0,0,0,0,0,no
0,0,0,0,0,no
0,0,0,0,0,no
0,0,0,0,0,no
0,0,0,0,0,no
0,0,0,0,0,no
0,0,0,0,0,no
0,0,0,0,0,no
0.00031,0.000109,0,0,0.00031,no
0,0,0.0625,0.333333,0,no
0,0,0.03125,0,0,no
0,0,0.09375,0,0,no
0,0,0.0625,0,0,no
0,0,0,0,0,no
0,0,0.03125,0,0,no
0.000232,0.000218,0.0625,0.333333,0.00031,no
0,0,0,0,0,no
0,0,0,0,0,no
0,0,0,0.333333,0,no
0.00062,0.000435,0,0,0.00062,no
0.002711,0.002176,0,0,0.004648,no
0.003718,0.002612,0.03125,0,0.003718,yes
0.001549,0.001088,0.28125,0.333333,0.00062,yes
0.000465,0.000326,0.15625,0.333333,0.00031,yes
0.00031,0.000218,0.09375,0.333333,0.00031,yes
0,0,0.0625,0.333333,0,yes
0.015027,0.010555,0,0,0.015027,no
0.007823,0.01099,0,0,0.015027,no
0.015027,0.010555,0,0,0.015027,no
0.015027,0.010555,0,0,0.015027,no
0.013013,0.00457,0.125,0.333333,0.003408,yes
0.015027,0.010555,0,0,0.015027,no
0.007978,0.011208,0,0,0.015027,yes
0.008443,0.011208,0,0,0.015027,no
0.003718,0.002612,0.03125,0,0.003718,yes
0.008598,0.012078,0,0,0.015027,yes
0.008598,0.012078,0,0,0.015027,yes
0.004183,0.001088,0,0,0.004183,no
0.004183,0.001088,0.03125,0,0.004183,no
0,0,0.03125,0,0,no
0.002479,0.001741,0.03125,0,0.004648,no
0.004648,0.001632,0,0,0.004648,no
0.004648,0.001632,0,0,0.004648,no
0.003718,0.002612,0.03125,0,0.003718,yes
0.000465,0.000326,0.09375,0.333333,0.00031,yes
0,0,0,0,0,yes
0,0,0,0,0,yes
0,0,0,0,0,no
0,0,0,0,0,no
0,0,0,0,0,no
0,0,0,0,0,no
0.003408,0.001197,0,0,0.003408,no
0.013013,0.00457,0.125,0.333333,0.003408,yes
0.007436,0.002612,0.09375,0.666667,0.003098,no
0.001549,0.000544,0.03125,0,0.00093,no
0.009915,0.003482,0.125,0.333333,0.002169,no
0.000465,0.000326,0.15625,0.333333,0.00031,no
0.000465,0.000326,0.15625,0.333333,0.00031,yes
0.00031,0.000218,0.09375,0.333333,0.00031,yes
0.003408,0.00185,0.09375,0.333333,0.002169,no
0.003408,0.00185,0.09375,0.333333,0.002169,yes
0.00093,0.000435,0,0,0.000775,no
0.000775,0.000326,0,0,0.000775,yes
0.000775,0.000109,0.03125,0.333333,0.000775,no
0,0,0.03125,0,0,no
0,0,0,0,0,no
0,0,0,0,0,no
0,0,0,0,0,no
0.003718,0.002612,0.03125,0,0.003718,yes
0.003718,0.002612,0,0,0.003718,no
0.003718,0.002612,0,0,0.003718,no
0.003718,0.002612,0.03125,0,0.003718,yes
0,0,0,0,0,no
0,0,0,0,0,no
0,0,0,0,0,no
0,0,0,0,0,no
0,0,0,0,0,no
0,0,0.03125,0,0,no
0,0,0.21875,0,0,no
0.00031,0.000109,0,0,0.00031,no
0,0,0,0,0,no
0,0,0,0,0,no
0,0,0.03125,0,0,no
0,0,0.09375,0,0,no
0,0,0.03125,0,0,no
0,0,0,0,0,no
0,0,0.03125,0,0,no
0,0,0,0,0,no
0.001859,0.001306,0.03125,0,0.001859,no
0.001859,0.001306,0.03125,0,0.001859,no
0,0,0,0,0,no
0.00031,0.000109,0.09375,0,0.00031,no
0.00093,0.000326,0.0625,0,0.00031,no
0,0,0.0625,0.333333,0,no
0,0,0,0,0,no
0.00031,0.000109,0.1875,0.333333,0.00031,no
0.001549,0.001523,0.09375,0,0.001239,no
0,0,0,0,0,no
0,0,0,0,0,no
0.00031,0.000109,0,0,0.00031,no
0.00093,0.000544,0,0,0.00093,no
0.001239,0.002394,0.40625,1,0.001859,no
0.001859,0.001306,0,0,0.001859,no
0.001549,0.000979,0.15625,0.333333,0.001239,no
0,0,0,0,0,no
0,0,0,0,0,no
0,0,0,0,0,no
0,0,0.125,0,0,no
0,0,0,0,0,no
0,0,0.03125,0,0,no
0,0,0,0,0,no
0,0,0.09375,0,0,no
0,0,0,0,0,no
0,0,0,0,0,no
0,0,0,0,0,no
0,0,0,0,0,no
0,0,0,0,0,no
0,0,0,0,0,no
0,0,0,0,0,no
0,0,0,0,0,no
0,0,0,0,0,no
0,0,0,0,0,no
0,0,0,0,0,no
0.000465,0.000326,0,0,0.000465,no
0.000465,0.000326,0,0,0.000465,no
0.000465,0.000326,0,0,0.000465,no
0,0,0,0,0,no
0.00031,0.000109,0,0.333333,0.00031,no
0,0,0,0,0,no
0,0,0,0,0,no
0,0,0,0,0,no
0,0,0,0,0,no
0,0,0,0,0,no
0,0,0,0,0,no
0,0,0,0,0,yes
0,0,0,0,0,no
0,0,0,0,0,no
0,0,0,0,0,no
0.00031,0.000109,0,0,0.00031,no
0.00031,0.000109,0,0,0.00031,no
0,0,0,0,0,no
0.00031,0.000109,0,0,0.00031,no
0.00031,0.000109,0.03125,0,0.00031,no
0,0,0,0,0,no
0,0,0,0,0,no
0.001859,0.001306,0,0,0.001859,no
0.001859,0.001306,0,0,0.001859,no
0.001859,0.001306,0,0,0.001859,no
0,0,0,0,0,no
0.00031,0.000109,0.0625,0,0.00031,no
0,0,0,0,0,no
0.00031,0.000109,0.03125,0.333333,0.00031,no
0.00031,0.000109,0.125,0.333333,0.00031,no
0,0,0,0,0,no
0.00062,0.000218,0.0625,0.333333,0.00062,no
0,0,0,0,0,no
0,0,0.03125,0,0,no
0,0,0.03125,0,0,no
0,0,0,0,0,no
0,0,0,0,0,no
0.00062,0.000218,0.0625,0.333333,0.00031,no
0,0,0.125,0.333333,0,no
0.001549,0.000544,0.09375,0.333333,0.001239,no
0,0,0,0,0,no
0,0,0,0,0,yes
0,0,0,0,0,no
0,0,0,0,0,no
0,0,0,0,0,no
0,0,0,0,0,yes
0.00062,0.000218,0,0,0.00062,no
0,0,0,0,0,yes
0,0,0,0,0,no
0,0,0,0,0,yes
0,0,0,0,0,yes
0.003253,0.002285,0.03125,0,0.003253,yes
0.003253,0.002285,0.0625,0,0.003253,no
0,0,0,0,0,no
0,0,0,0,0,no
0,0,0,0,0,no
0,0,0,0,0,no
0,0,0,0,0,no
0,0,0,0,0,no
0,0,0,0,0,no
0,0,0,0,0,no
0,0,0,0,0,no
0,0,0,0,0,no
0,0,0,0,0,no
0,0,0,0,0,no
0,0,0,0,0,no
0,0,0,0,0,no
0,0,0,0,0,no
0,0,0,0,0,no
0,0,0,0,0,no
0,0,0,0,0,no
0,0,0,0,0,no
0,0,0,0,0,no
0,0,0,0,0,no
0,0,0,0,0,no
0,0,0,0,0,no
0,0,0,0,0,no
0,0,0,0,0,no
0,0,0.03125,0,0,no
0.00031,0.000109,0.09375,0.333333,0.00031,no
0,0,0.0625,0,0,no
0.00062,0.000218,0.0625,0,0.00031,no
0,0,0,0,0,no
0.00093,0.000326,0,0,0.000465,no
0,0,0,0,0,no
0.000775,0.000544,0,0,0.000775,no
0.000775,0.001088,0,0,0.000775,no
0,0,0,0,0,no
0.000775,0.000544,0,0,0.000775,no
0.00031,0.000109,0,0,0.00031,no
0.00031,0.000109,0,0,0.00031,no
0,0,0,0,0,no
0.00062,0.000435,0,0,0.00062,no
0.00062,0.000435,0,0,0.00062,no
0.00031,0.000109,0.125,0.333333,0.00031,no
0.00062,0.000218,0,0,0.00062,no
0,0,0,0,0,no
0,0,0,0,0,no
0,0,0.0625,0,0,no
0,0,0,0,0,no
0,0,0.03125,0.333333,0,no
0,0,0,0,0,no
0,0,0,0,0,no
0,0,0,0,0,no
0.000891,0.001415,0.15625,0.333333,0.00062,no
0.00062,0.000435,0.03125,0.666667,0.00062,no
0,0,0.03125,0,0,no
0,0,0,0,0,no
0.00031,0.000109,0.09375,0.333333,0.00031,no
0,0,0,0,0,no
0,0,0,0,0,no
0.00031,0.000109,0.0625,0.333333,0.00031,no
0,0,0,0,0,no
0,0,0.03125,0,0,no
0,0,0,0,0,no
0,0,0.03125,0.333333,0,no
0,0,0,0,0,no
0,0,0,0,0,no
0,0,0,0,0,no
0,0,0,0,0,no
0,0,0,0,0,no
0,0,0,0,0,no
0,0,0,0,0,no
0,0,0,0,0,no
0,0,0,0,0,no
0.000387,0.000326,0,0,0.000465,no
0.001394,0.001741,0,0.333333,0.002479,no
0.001394,0.001741,0,0,0.002479,no
0.002479,0.001632,0,0.333333,0.002479,no
0,0,0,0,0,no
0,0,0,0,0,no
0.002789,0.00185,0.09375,0.333333,0.002789,no
0,0,0.03125,0,0,no
0,0,0.03125,0,0,no
0.004287,0.008487,0,0,0.011774,no
0.006042,0.008379,0.03125,0.333333,0.011774,no
0.020449,0.014363,0.0625,0,0.020449,no
0.007126,0.014908,0.40625,1,0.020449,no
0,0,0.03125,0,0,no
0.020449,0.014363,0.09375,0.666667,0.020449,no
0.020449,0.014363,0.03125,0,0.020449,no
0,0,0.03125,0,0,no
0,0,0.03125,0,0,no
0.020449,0.014363,0.0625,0,0.020449,no
0.002789,0.00185,0.09375,0.333333,0.002789,no
0.010225,0.000435,0.0625,0.333333,0.00945,no
0.002789,0.00185,0.09375,0.333333,0.002789,no
0.003563,0.002176,0.15625,0.333333,0.002789,no
0,0,0.03125,0,0,no
0,0,0.03125,0,0,no
0.002789,0.00185,0.09375,0.333333,0.002789,no
0.000155,0.000109,0,0,0.000155,no
0,0,0.03125,0,0,no
0,0,0,0,0,no
0,0,0,0,0,yes
0.001859,0.001306,0,0,0.001859,no
0,0,0.03125,0,0,no
0.001343,0.00272,0.09375,0.333333,0.003253,yes
0,0,0,0,0,no
0.001343,0.00272,0.09375,0.333333,0.003253,yes
0,0,0,0,0,yes
0.000465,0.000435,0.0625,0.333333,0.00031,no
0,0,0,0,0,yes
0,0,0,0,0,yes
0.000775,0.000653,0,0,0.001394,no
0.00945,0.006638,0,0,0.00945,no
0.00488,0.006746,0,0,0.00945,no
0.001343,0.00272,0.09375,0.333333,0.003253,yes
0,0,0,0,0,yes
0,0,0,0,0,yes
0.005035,0.006855,0,0,0.00945,no
0.005422,0.006855,0.09375,0.333333,0.00945,no
0.00031,0.000218,0,0,0.00031,no
0.004183,0.002829,0,0,0.004183,no
0.004183,0.002829,0,0,0.004183,no
0.004183,0.002829,0,0.333333,0.004183,no
0.001343,0.00272,0.09375,0.333333,0.003253,yes
0,0,0,0,0,yes
0,0,0,0,0,yes
0,0,0,0,0,yes
0,0,0,0,0,yes
0,0,0,0,0,yes
0.000465,0.000218,0.0625,0,0.000465,no
0,0,0,0,0,yes
0.003253,0.002285,0.09375,0,0.003253,no
0,0,0,0.333333,0,no
0,0,0,0.333333,0,no
0.001343,0.00272,0.09375,0.333333,0.003253,yes
0,0,0,0.333333,0,no
0,0,0,0,0,no
0.001343,0.00272,0.09375,0.333333,0.003253,yes
0,0,0,0,0,yes
0,0,0,0,0,yes
0,0,0,0,0,no
0,0,0,0,0,no
0,0,0.03125,0.333333,0,no
0,0,0,0,0,yes
0,0,0,0,0,yes
0,0,0,0.333333,0,no
0,0,0,0.333333,0,no
0,0,0,0,0,no
0,0,0,0,0,no
0,0,0.03125,0,0,no
0,0,0,0,0,no
0.00031,0.000109,0,0.333333,0.00031,no
0.00031,0.000109,0,0,0.00031,no
0.00031,0.000109,0,0.333333,0.00031,no
0,0,0,0,0,no
0.00031,0.000109,0.03125,0,0.00031,no
0,0,0,0,0,no
0,0,0,0,0,no
0,0,0,0,0,no
0,0,0,0,0,no
0.004183,0.002612,0.0625,0,0.003408,no
0.003408,0.002394,0.03125,0,0.003408,no
0,0,0,0,0,no
0,0,0,0,0,no
0,0,0,0,0,no
0.00031,0.000109,0,0.333333,0.00031,no
0,0,0,0.333333,0,no
0,0,0,0,0,no
0,0,0,0,0,no
0.00062,0.000435,0,0,0.00062,no
0,0,0,0,0,no
0,0,0,0,0,no
0.00031,0.000109,0,0.333333,0.00031,no
0,0,0,0,0,no
0.00031,0.000109,0,0,0.00031,no
0.002169,0.000762,0.28125,0.333333,0.00062,no
0.001859,0.000653,0.28125,0.333333,0.00062,no
0.001549,0.000544,0.15625,0.666667,0.00062,no
0,0,0.03125,0,0,no
0.005577,0.001959,0.0625,0.666667,0.003408,no
0.004957,0.001741,0.0625,0,0.003408,no
0.006197,0.002176,0.0625,0.666667,0.004957,no
0.005887,0.002067,0.0625,0,0.004957,no
0.00093,0.000326,0.0625,0.333333,0.00031,no
0.00062,0.000218,0.0625,0,0.00031,no
0.00062,0.000218,0,0,0.00062,no
0.00031,0.000109,0,0,0.00031,no
0,0,0,0,0,no
0.00031,0.000109,0,0,0.00031,no
0,0,0,0,0,no
0,0,0,0,0,no
0.001317,0.001415,0.03125,0.333333,0.002014,no
0.002014,0.001197,0,0,0.002014,no
0.00031,0.000109,0,0,0.00031,no
0.002014,0.001197,0,0,0.002014,no
0.002014,0.001197,0,0,0.002014,no
0.002014,0.001197,0,0,0.002014,no
0.002014,0.001197,0,0,0.002014,no
0.002014,0.001197,0,0,0.002014,no
0,0,0,0,0,no
0,0,0,0,0,no
0.00031,0.000109,0,0,0.00031,no
0,0,0,0,0,no
0,0,0,0,0,no
0.00062,0.000435,0,0,0.00062,no
0.00062,0.000218,0,0,0.00062,no
0,0,0,0,0,no
0,0,0,0,0,no
0.000775,0.000544,0,0,0.000775,no
0,0,0,0,0,no
0,0,0,0,0,no
0,0,0,0,0,no
0.00062,0.000218,0.03125,0,0.00062,no
0,0,0,0,0,no
0.000775,0.000544,0,0,0.000775,no
0,0,0.03125,0,0,no
0.001394,0.000979,0.1875,0.333333,0.001239,no
0.001394,0.000979,0.15625,0,0.001239,no
0,0,0,0,0,no
0,0,0,0,0,no
0.008985,0.003156,0.09375,0.333333,0.004338,no
0.002014,0.001306,0.09375,0,0.002014,no
0.00062,0.000218,0.03125,0,0.00062,no
0.00062,0.000435,0,0,0.00062,no
0.00031,0.000109,0,0,0.00031,no
0.00031,0.000109,0.0625,0,0.00031,no
0,0,0,0,0,no
0.00031,0.000109,0.03125,0,0.00031,no
0,0,0.03125,0,0,no
0.001239,0.000435,0.21875,0.333333,0.00062,no
0.001239,0.000435,0.125,0.666667,0.00062,no
0,0,0.03125,0,0,no
0.00062,0.000218,0.15625,0.333333,0.00031,no
0.001239,0.000435,0.125,0.666667,0.00062,no
0.00031,0.000109,0.03125,0,0.00031,no
0.005577,0.001959,0.125,0.333333,0.003253,no
0.002014,0.001306,0.09375,0,0.002014,no
0.001239,0.000435,0,0,0.001239,no
0,0,0.03125,0,0,no
0.001239,0.000435,0.125,0.333333,0.00062,no
0.001239,0.000435,0.125,0.666667,0.00062,no
0.00062,0.000218,0.03125,0,0.00062,no
0.002014,0.001415,0.0625,0,0.002014,no
0.00062,0.000218,0.03125,0,0.00031,no
0,0,0,0,0,no
0.00093,0.000326,0.03125,0,0.00062,no
0,0,0,0,0,no
0.00093,0.000326,0.03125,0,0.00031,no
0,0,0,0,0,no
0.00093,0.000326,0.03125,0,0.00031,no
0,0,0,0,0,no
0.00062,0.000218,0.03125,0,0.00031,no
0,0,0,0,0,no
0,0,0,0,0,no
0,0,0,0,0,no
0,0,0.03125,0,0,no
0,0,0,0,0,no
0,0,0.03125,0.333333,0,no
0,0,0,0.333333,0,no
0,0,0.03125,0.333333,0,no
0,0,0,0.333333,0,no
0,0,0.03125,0,0,no
0,0,0,0,0,no
0,0,0.03125,0,0,no
0,0,0,0,0,no
0,0,0.03125,0,0,no
0,0,0,0,0,no
0.004028,0.001415,0.0625,0.666667,0.003718,no
0.003718,0.001306,0.03125,0,0.003718,no
0.003718,0.001306,0.03125,0,0.003718,no
0,0,0,0,0,no
0,0,0.0625,0.333333,0,no
0,0,0,0,0,no
0,0,0.03125,0,0,no
0,0,0.0625,0.333333,0,no
0,0,0.03125,0,0,no
0.002479,0.001741,0.0625,0,0.002479,no
0.003021,0.002938,0.125,0.333333,0.00062,no
0,0,0.0625,0,0,no
0.003873,0.001632,0.34375,0.666667,0.002789,no
0,0,0,0,0,no
0.001859,0.000979,0.46875,0.666667,0.00062,yes
0.00062,0.000218,0.25,0.333333,0.00031,no
0.00062,0.000218,0.25,0.333333,0.00031,no
0.00031,0.000109,0,0,0.00031,no
0.00031,0.000109,0,0,0.00031,no
0.001782,0.001088,0.0625,0.666667,0.001394,no
0,0,0.03125,0,0,no
0,0,0,0,0,no
0,0,0,0,0,no
0,0,0,0,0,no
0,0,0,0,0,no
0,0,0,0,0,no
0.00093,0.000544,0,0,0.00093,no
0.001084,0.000435,0.03125,0,0.001084,no
0.003447,0.007617,0.4375,0.666667,0.002479,yes
0,0,0,0,0,no
0,0,0.03125,0,0,no
0,0,0.03125,0,0,no
0.000465,0.000435,0.03125,0,0.00062,no
0.000569,0.000435,0.09375,0.666667,0.000775,no
0,0,0.03125,0,0,no
0.005887,0.002067,0.03125,0,0.003408,no
0.006507,0.003373,0,0,0.006507,no
0.011929,0.007073,0.125,0,0.006507,no
0.005422,0.0037,0.03125,0,0.005422,no
0.005422,0.0037,0.03125,0,0.005422,no
0.001356,0.003591,0,0,0.003408,no
0.001356,0.003591,0,0,0.003408,no
0.000558,0.001741,0,0,0.00093,no
0.000542,0.001197,0,0,0.00093,no
0.00031,0.000109,0,0,0.00031,no
0,0,0,0,0,no
0.004802,0.003373,0.09375,0.666667,0.004802,no
0.010689,0.007508,0,0,0.010689,no
0.010689,0.007508,0,0,0.010689,no
0.010689,0.007508,0,0,0.010689,no
0.010689,0.007508,0,0,0.010689,no
0.005267,0.010773,0,0,0.010689,no
0.007591,0.010664,0,0,0.010689,no
0.005163,0.010773,0,0,0.010689,no
0.005216,0.010881,0,0,0.010689,no
0.005163,0.010881,0,0,0.010689,no
0.00316,0.01099,0,0,0.010689,no
0.003047,0.009576,0,0,0.010689,no
0.004802,0.003373,0.09375,0.666667,0.004802,no
0.00253,0.004244,0,0,0.005732,no
0.005473,0.015887,0,0,0.013478,no
0.006093,0.031121,0,0,0.014562,no
0.006158,0.029489,0,0,0.014562,no
0.001278,0.002503,0,0,0.001859,no
0.002014,0.001088,0,0,0.002014,no
0.00169,0.009793,0.125,0.333333,0.007281,no
0.001007,0.001306,0.03125,0,0.001704,no
0.002036,0.018063,0.375,0.666667,0.011154,no
0.003292,0.008923,0,0,0.011154,no
0.003357,0.012514,0.03125,0,0.011154,no
0.005577,0.011752,0,0,0.011154,no
0.005473,0.011425,0,0,0.011154,no
0.005771,0.015452,0.03125,0,0.011154,no
0.00374,0.017301,0,0.333333,0.011154,no
0.001394,0.000871,0,0,0.001394,no
0.002827,0.005767,0.25,0.333333,0.013633,no
0.00277,0.00555,0.25,0.333333,0.013633,no
0.001433,0.00555,0.09375,0.333333,0.002169,yes
0.005453,0.014255,0,0.333333,0.00883,no
0.003822,0.007943,0,0,0.00883,no
0.004648,0.006855,0,0,0.00883,no
0.006248,0.011534,0,0,0.00883,no
0.004648,0.011643,0,0,0.00883,no
0.005616,0.010337,0.0625,0,0.00883,no
0.00883,0.006202,0.125,0,0.00883,no
0.000775,0.000762,0.03125,0,0.00093,no
0.002324,0.007943,0.1875,0.333333,0.006042,no
0.011464,0.008052,0.03125,0,0.011464,no
0.003679,0.018607,0.21875,0.333333,0.011464,no
0.006093,0.012078,0,0,0.011464,no
0.005887,0.00827,0.03125,0,0.011464,no
0.011464,0.008052,0.03125,0,0.011464,no
0.011464,0.008052,0,0,0.011464,no
0.001278,0.002503,0,0,0.001859,no
0.001975,0.003917,0.03125,0,0.002014,no
0.001278,0.002503,0,0,0.001859,no
0.002014,0.001088,0,0,0.002014,no
0.001983,0.005767,0.125,0.333333,0.005887,no
0.003563,0.004461,0.03125,0,0.005887,no
0.00093,0.001197,0,0,0.001549,no
0.00062,0.000218,0,0,0.00062,no
0.002324,0.002176,0.03125,0,0.002634,no
0.00222,0.003156,0.0625,0,0.002634,no
0.002324,0.000653,0.03125,0.333333,0.002169,no
0,0,0,0,0,no
0.004802,0.003373,0.09375,0.666667,0.004802,no
0,0,0,0,0,no
0,0,0.03125,0,0,no
0,0,0.21875,0.333333,0,no
0,0,0.09375,0,0,no
0.004802,0.003373,0.09375,0.333333,0.004802,no
0.004802,0.003373,0.09375,0.666667,0.004802,no
0,0,0.03125,0,0,no
0,0,0,0,0,no
0,0,0,0,0,no
0,0,0,0,0,no
0.00031,0.000109,0,0,0.00031,no
0.00031,0.000109,0,0,0.00031,no
0.001084,0.001197,0,0,0.001239,no
0.000775,0.001088,0,0,0.001239,no
0.000878,0.001197,0.15625,0,0.00062,no
0.000465,0.000435,0,0,0.00031,no
0.00062,0.000218,0,0,0.00031,no
0.001588,0.003591,0.25,0.333333,0.002943,no
0,0,0,0,0,no
0,0,0,0,0,no
0.003718,0.002612,0,0,0.003718,no
0.002324,0.003156,0,0,0.003718,no
0.002324,0.003156,0,0,0.003718,no
0.003718,0.002612,0,0,0.003718,no
0.003718,0.002612,0,0,0.003718,no
0,0,0,0,0,no
0,0,0,0,0,no
0,0,0,0,0,no
0,0,0,0,0,no
0,0,0,0,0,no
0,0,0,0,0,no
0,0,0,0,0,no
0,0,0,0,0,no
0,0,0,0,0,no
0,0,0,0,0,no
0,0,0.03125,0,0,no
0.023857,0.016757,0,0,0.023857,no
0.023857,0.016757,0,0,0.023857,no
0.023857,0.016757,0,0,0.023857,no
0.023857,0.016757,0,0,0.023857,no
0.023857,0.016757,0,0,0.023857,no
0.023857,0.016757,0.03125,0,0.023857,no
0.023857,0.016757,0,0,0.023857,no
0.023857,0.016757,0,0,0.023857,no
0.023857,0.016757,0,0,0.023857,no
0.023857,0.016757,0,0,0.023857,no
0.023857,0.016757,0.03125,0,0.023857,no
0.023857,0.016757,0,0,0.023857,no
0.023857,0.016757,0,0,0.023857,no
0.023857,0.016757,0,0,0.023857,no
0.023857,0.016757,0,0,0.023857,no
0.023857,0.016757,0.0625,0,0.023857,no
0.023857,0.016757,0.09375,0.333333,0.023857,no
0,0,0,0,0,no
0,0,0.125,0.333333,0,no
0,0,0,0,0,no
0,0,0,0,0,no
0,0,0,0,0,no
0,0,0,0,0,no
0,0,0.125,0.333333,0,no
0,0,0,0,0,no
0,0,0,0,0,no
0,0,0,0,0,no
0,0,0,0,0,no
0,0,0.125,0.333333,0,no
0,0,0,0,0,no
0,0,0,0,0,no
0,0,0,0,0,no
0,0,0,0,0,no
0.00031,0.000109,0,0,0.00031,no
0.000465,0.000109,0.0625,0,0.000465,no
0.000465,0.000326,0,0,0.000465,no
0.010999,0.007726,0,0,0.010999,no
0.010999,0.007726,0,0,0.010999,no
0.005732,0.008052,0,0,0.010999,no
0.010999,0.007726,0,0,0.010999,no
0.010999,0.007726,0.15625,0.333333,0.010999,no
0,0,0,0,0,no
0.001084,0.000435,0,0,0.001084,no
0.001394,0.000435,0.0625,0,0.001394,no
0.00031,0.000109,0.09375,0.333333,0.00031,no
0,0,0.03125,0,0,no
0,0,0.03125,0,0,no
0,0,0.03125,0,0,no
0,0,0,0,0,no
0,0,0.03125,0,0,no
0,0,0,0,0,no
0,0,0.0625,0,0,no
0,0,0.15625,0.333333,0,no
0,0,0,0,0,no
0,0,0,0,0,no
0,0,0,0,0,no
0,0,0.03125,0,0,no
0,0,0.03125,0,0,no
0,0,0,0,0,no
0,0,0.09375,0.333333,0,no
0,0,0,0,0,no
0.000852,0.000653,0,0,0.001239,no
0.001239,0.000871,0,0,0.001239,no
0.00093,0.000326,0.125,0.333333,0.00031,no
0,0,0,0,0,no
0,0,0,0,0,no
0,0,0.0625,0,0,no
0.000542,0.000544,0.375,0.666667,0.000465,no
0,0,0,0,0,no
0.003873,0.00185,0.09375,0,0.003873,no
0.002634,0.00185,0.0625,0,0.002634,no
0.002634,0.00185,0,0,0.002634,no
0.003408,0.003264,0.15625,0.333333,0.002634,no
0.000465,0.000218,0.03125,0,0.000465,no
0.000465,0.000435,0.09375,0.333333,0.000465,no
0,0,0.03125,0,0,no
0.00031,0.000109,0,0,0.00031,no
0.001859,0.000979,0,0,0.001859,no
0.001084,0.001306,0,0,0.001704,no
0,0,0,0,0,no
0.000387,0.000326,0,0,0.000465,no
0.007359,0.009576,0,0,0.014407,no
0.014407,0.009358,0,0,0.014407,no
0.002237,0.012405,0.0625,0.333333,0.014407,no
0.006081,0.014799,0,0,0.014407,no
0.00701,0.017519,0,0,0.014407,no
0.004957,0.018172,0.03125,0.333333,0.014407,no
0.003486,0.00827,0.03125,0,0.008985,no
0.006662,0.008052,0,0,0.008985,no
0.006662,0.008052,0,0,0.008985,no
0.003563,0.008379,0,0,0.008985,no
0.005732,0.015234,0.09375,0.333333,0.013633,no
0.002118,0.004244,0.125,0.333333,0.004338,no
0.00031,0.000109,0.03125,0,0.00031,no
0.001433,0.0037,0.09375,0.333333,0.004802,no
0.002556,0.003482,0,0,0.004802,no
0.002866,0.0037,0.125,0.333333,0.004802,no
0.000426,0.000762,0.03125,0,0.000775,no
0.000723,0.001197,0.0625,0.333333,0.000775,no
0.00275,0.006638,0.21875,0.333333,0.012084,no
0.006274,0.016322,0.0625,0.333333,0.018125,no
0.009346,0.016322,0.03125,0,0.018125,no
0.007591,0.013058,0.03125,0,0.018125,no
0.0044,0.014472,0.25,0.333333,0.018125,no
0.018125,0.012296,0.0625,0.333333,0.018125,no
0.00395,0.010011,0,0,0.007591,no
0.005112,0.009793,0,0,0.007591,no
0.007049,0.008923,0,0,0.007591,no
0.002978,0.014255,0.21875,0.333333,0.007591,no
0.003253,0.003591,0.21875,0.333333,0.004493,no
0.000155,0.000218,0,0,0.000155,no
0.002479,0.003482,0,0,0.004802,no
0.002375,0.004897,0.03125,0,0.004802,no
0.002556,0.003482,0.03125,0,0.004802,no
0.001239,0.000218,0.03125,0,0.001239,no
0,0,0,0,0,no
0.004802,0.006746,0.0625,0,0.007901,no
0.004725,0.006638,0.03125,0,0.007901,no
0.007901,0.00555,0.09375,0.333333,0.007901,no
0.007901,0.00555,0.25,0.333333,0.007901,no
0,0,0,0,0,no
0,0,0,0,0,no
0,0,0.0625,0,0,no
0,0,0,0,0,no
0,0,0.0625,0,0,no
0.007591,0.004135,0.125,0.333333,0.005887,no
0.008521,0.005876,0,0,0.008521,no
0.007591,0.004897,0,0,0.005887,no
0.001084,0.001306,0.125,0.333333,0.001704,no
0.007901,0.005441,0.125,0.333333,0.007901,no
0.007901,0.005441,0.03125,0,0.007901,no
0.00426,0.005767,0.125,0.333333,0.007901,no
0.003641,0.009793,0.21875,0.333333,0.008521,no
0.008521,0.005876,0,0,0.008521,no
0.003718,0.007291,0.1875,0.333333,0.005267,no
0.002866,0.003808,0.125,0.333333,0.005267,no
0,0,0,0,0,no
0.000387,0.000326,0.21875,0.333333,0.000465,no
0,0,0,0,0,no
0,0,0,0,0,no
0.001394,0.000979,0,0,0.001394,no
0,0,0,0,0,no
0,0,0,0,0,no
0.002943,0.007399,0.125,0.333333,0.006507,no
0.00457,0.006311,0.03125,0,0.006507,no
0.006507,0.004461,0.0625,0,0.006507,no
0.000885,0.001415,0.3125,1,0.001859,no
0.00031,0.000218,0.0625,0,0.00031,no
0.000426,0.000435,0.125,0.333333,0.000775,no
0,0,0,0,0,no
0,0,0.0625,0,0,no
0,0,0.125,0.333333,0,no
0,0,0.0625,0,0,no
0.019365,0.013602,0.03125,0,0.019365,no
0.019365,0.013602,0.03125,0,0.019365,no
0.010225,0.014255,0.125,0.333333,0.019365,no
0.019365,0.013602,0,0,0.019365,no
0.005151,0.014037,0.03125,0,0.019365,no
0.007385,0.015234,0.03125,0,0.019365,no
0.007385,0.015234,0,0,0.019365,no
0.019365,0.013602,0.03125,0,0.019365,no
0.007281,0.014146,0,0,0.019365,no
0.010225,0.014363,0,0,0.019365,no
0.019365,0.013602,0,0,0.019365,no
0,0,0,0,0,no
0,0,0,0,0,no
0,0,0.15625,0.333333,0,no
0,0,0,0,0,no
0,0,0,0,0,no
0,0,0,0,0,no
0.000775,0.000218,0,0,0.000775,no
0.000465,0.000109,0.03125,0,0.000465,no
0.00031,0.000109,0.03125,0,0.00031,no
0.001084,0.000871,0,0,0.000775,no
0.000775,0.000544,0,0,0.000775,no
0.001162,0.001632,0.03125,0,0.001549,no
0.001549,0.001088,0,0,0.001549,no
0,0,0,0,0,no
0,0,0,0,0,no
0,0,0,0,0,no
0,0,0,0,0,no
0.00062,0.000218,0,0.333333,0.00031,no
0.006507,0.002176,0.0625,0,0.004802,no
0.004802,0.001632,0,0,0.004802,no
0.001859,0.001959,0.125,0.333333,0.004802,no
0.00031,0.000109,0,0,0.00031,no
0.00062,0.000109,0.03125,0,0.00062,no
0,0,0.09375,0.333333,0,no
0,0,0,0,0,no
0,0,0,0,0,no
0,0,0,0,0,no
0.001704,0.001197,0,0,0.001704,no
0.001704,0.001197,0,0,0.001704,no
0.001704,0.001197,0,0,0.001704,no
0.00031,0.000109,0,0,0.00031,no
0.001007,0.001088,0.125,0.333333,0.001704,no
0.00031,0.000109,0,0,0.00031,no
0.00062,0.000109,0.03125,0,0.00062,no
0,0,0,0,0,no
0,0,0,0.333333,0,no
0.000542,0.000326,0,0,0.00062,no
0,0,0,0,0,no
0,0,0,0,0,no
0.00031,0.000109,0,0,0.00031,no
0.00093,0.000435,0.125,0,0.00062,no
0,0,0.1875,0.333333,0,no
0.000465,0.000218,0.125,0.333333,0.00062,no
0.00062,0.000109,0.03125,0,0.00062,no
0,0,0,0,0,no
0,0,0,0,0,no
0.000581,0.001197,0.3125,0.666667,0.00093,no
0,0,0.0625,0,0,no
0,0,0.0625,0,0,no
0,0,0,0,0,no
0,0,0.21875,0.333333,0,no
0,0,0,0,0,no
0,0,0.03125,0,0,no
0,0,0.03125,0,0,no
0,0,0,0,0,no
0.00031,0.000109,0,0,0.00031,no
0.000775,0.000871,0,0,0.00093,no
0.00062,0.000435,0,0,0.00062,no
0.00031,0.000326,0,0,0.000465,no
0,0,0,0,0,no
0.001498,0.000653,0,0,0.003718,no
0,0,0,0,0,no
0.000775,0.000109,0,0,0.000775,no
0.076995,0.000109,0,0,0.076995,no
0,0,0,0,0,no
0,0,0,0,0,no
0,0,0,0,0,no
0.00062,0.000544,0.03125,0.333333,0.000775,no
0,0,0,0,0,no
0,0,0,0,0,no
0,0,0,0,0,no
0,0,0,0,0,no
0,0,0.03125,0,0,no
0,0,0.03125,0,0,no
0.003796,0.004788,0.0625,0,0.005267,no
0.003331,0.003917,0.03125,0.333333,0.005267,no
0.001239,0.000109,0.0625,0,0.001239,no
0,0,0.0625,0,0,no
0.000465,0.000435,0,0,0.00062,no
0.001588,0.003156,0.15625,0.333333,0.002324,no
0,0,0,0,0,no
0.002169,0.002938,0.09375,0,0.004028,no
0.002169,0.002938,0,0.333333,0.004028,no
0.004028,0.002829,0,0,0.004028,no
0.004028,0.002829,0,0,0.004028,no
0,0,0,0,0,no
0,0,0,0,0,no
0.00151,0.003591,0.25,0.333333,0.002169,yes
0.00031,0.000109,0,0,0.00031,no
0,0,0,0,0,no
0.001456,0.004679,0.34375,0.666667,0.002169,no
0.001136,0.002285,0,0,0.002169,no
0,0,0.21875,0.666667,0,no
0.003098,0.00185,0.3125,0.666667,0.002324,no
0.001704,0.004679,0.3125,0.666667,0.003408,no
0.001188,0.001741,0.21875,0.333333,0.001859,no
0.000516,0.000544,0.09375,0.333333,0.00031,no
0.001549,0.001088,0.03125,0,0.001549,no
0.001704,0.000762,0.0625,0,0.001549,no
0.004957,0.003482,0.03125,0,0.004957,no
0.004957,0.003482,0.0625,0,0.004957,no
0.004957,0.003482,0.0625,0,0.004957,no
0,0,0.03125,0,0,no
0,0,0.0625,0,0,no
0,0,0,0.333333,0,no
0,0,0,0,0,no
0,0,0,0,0,no
0,0,0,0,0,no
0,0,0,0,0,no
0,0,0,0,0,no
0,0,0,0,0,no
0,0,0,0,0,no
0,0,0,0,0,no
0,0,0,0,0,no
0,0,0.03125,0,0,no
0,0,0,0,0,no
0,0,0,0,0,no
0,0,0,0,0,no
0,0,0,0,0,no
0,0,0,0,0,no
0,0,0,0,0,no
0,0,0,0,0,no
0.001084,0.001415,0,0,0.002634,no
0.001368,0.003591,0.03125,0,0.002324,no
0.002324,0.001415,0,0,0.002324,no
0.001472,0.001523,0,0,0.002324,no
0.001549,0.002176,0,0,0.002634,no
0.001188,0.002067,0,0,0.002324,no
0.00129,0.002067,0,0,0.002324,no
0.002324,0.001415,0,0,0.002324,no
0.000775,0.000218,0,0,0.000465,no
0,0,0.03125,0,0,no
0,0,0,0,0,no
0.00062,0.000218,0,0,0.00062,no
0.00062,0.000218,0,0,0.00062,no
0.001859,0.000109,0.03125,0,0.001859,no
0.002169,0.000109,0,0,0.002169,no
0.000775,0.000218,0,0,0.000775,no
0.00031,0.000109,0,0,0.00031,no
0,0,0,0,0,no
0,0,0,0,0,no
0,0,0,0,0,no
0,0,0,0,0,no
0,0,0.03125,0,0,no
0,0,0,0,0,no
0.00031,0.000109,0.03125,0,0.00031,no
0.001859,0.001306,0,0,0.001859,no
0.002634,0.001741,0.0625,0,0.002634,no
0,0,0.03125,0,0,no
0,0,0,0,0,no
0,0,0.03125,0,0,no
0,0,0,0,0,no
0,0,0.1875,0.333333,0,yes
0,0,0,0,0,no
0,0,0,0,0,no
0,0,0,0,0,no
0,0,0,0,0,no
0,0,0,0,0,no
0.00093,0.000653,0,0,0.00093,no
0,0,0.03125,0,0,no
0,0,0,0,0,no
0,0,0,0,0,no
0,0,0,0,0,no
0,0,0,0,0,no
0,0,0.03125,0,0,no
0,0,0.03125,0,0,no
0.001239,0.000653,0.03125,0,0.001239,no
0,0,0,0,0,no
0,0,0,0,0,no
0,0,0,0,0,no
0,0,0,0,0,no
0,0,0,0,0,no
0,0,0,0,0,no
0,0,0.0625,0,0,no
0,0,0,0,0,no
0,0,0,0,0,no
0.00062,0.000218,0,0,0.00062,no
0,0,0,0,0,no
0,0,0.03125,0,0,no
0.00031,0.000109,0,0,0.00031,no
0,0,0,0,0,no
0,0,0.0625,0,0,no
0,0,0,0,0,no
0,0,0,0,0,no
0,0,0,0,0,no
0.002789,0.001959,0,0,0.002789,no
0.002789,0.001959,0,0,0.002789,no
0,0,0,0,0,no
0,0,0,0,0,no
0,0,0,0,0,no
0,0,0,0,0,no
0,0,0,0,0,no
0,0,0,0,0,no
0,0,0,0,0,no
0,0,0,0,0,no
0,0,0,0,0,no
0,0,0,0,0,no
0,0,0,0,0,no
0,0,0,0,0,no
0,0,0,0,0,no
0,0,0,0,0,no
0,0,0,0,0,no
0,0,0,0,0,no
0,0,0,0,0,no
0,0,0,0,0,no
0,0,0,0,0,no
0,0,0,0,0,no
0,0,0,0,0,no
0,0,0,0,0,no
0,0,0,0,0,no
0,0,0,0,0,no
0.00031,0.000109,0,0,0.00031,no
0,0,0,0,0,no
0,0,0,0,0,no
0,0,0,0,0,no
0,0,0,0,0,no
0,0,0,0,0,no
0,0,0,0,0,no
0,0,0.1875,0.333333,0,yes
0.015957,0.001523,0,0,0.015957,no
0.003408,0.001306,0,0,0.003408,no
0.003873,0.001523,0,0,0.003873,no
0.011154,0.007726,0,0,0.011154,no
0.011154,0.007726,0,0,0.011154,no
0.011154,0.007726,0,0,0.011154,no
0.006584,0.00914,0,0,0.011154,no
0.006584,0.00914,0,0,0.011154,no
0,0,0,0,0,no
0.00031,0.001523,0.71875,0.666667,0.00031,yes
0,0,0,0,0,no
0,0,0,0,0,no
0.00031,0.001523,0.75,0.666667,0.00031,yes
0,0,0,0,0,no
0,0,0,0,0,no
0,0,0,0,0,no
0,0,0,0,0,no
0.00093,0.000653,0,0,0.00093,no
0,0,0,0,0,no
0,0,0,0,0,no
0.00093,0.000653,0,0,0.00093,no
0.00093,0.000653,0,0,0.00093,no
0,0,0,0,0,no
0,0,0,0,0,no
0,0,0,0,0,no
0,0,0,0,0,no
0.00093,0.000653,0,0,0.00093,no
0.00093,0.001306,0,0,0.00093,no
0.00093,0.000653,0,0,0.00093,no
0,0,0,0,0,no
0,0,0,0,0,no
0.00093,0.000653,0,0,0.00093,no
0,0,0,0,0,no
0.00093,0.000653,0,0,0.00093,no
0,0,0,0,0,no
0,0,0,0,0,no
0.004415,0.003373,0,0,0.007746,no
0.004415,0.003373,0,0,0.007746,no
0.003331,0.003482,0,0,0.003873,no
0.001963,0.007835,0,0.333333,0.005112,no
0.002273,0.00457,0,0,0.006352,no
0.003641,0.010229,0.0625,0.333333,0.015027,no
0.006301,0.003482,0,0,0.015027,no
0.002711,0.003591,0,0,0.003408,no
0.002014,0.001197,0,0,0.002014,no
0.005732,0.003808,0,0,0.005732,no
0.002363,0.005985,0,0.333333,0.005732,no
0.010844,0.030033,0.03125,0.333333,0.031294,yes
0.031294,0.021654,0,0,0.031294,no
0.031294,0.021654,0,0,0.031294,no
0.008521,0.028945,0.03125,0.666667,0.031294,yes
0.016654,0.022742,0,0.333333,0.031294,yes
0.020294,0.028183,0,0.333333,0.031294,yes
0.010534,0.0284,0.03125,0,0.031294,no
0.001936,0.00185,0.03125,0,0.001704,no
0.000775,0.000435,0,0,0.000775,yes
0.00031,0.000109,0.03125,0,0.00031,yes
0.001007,0.001197,0.15625,0.333333,0.001394,yes
0,0,0,0,0,no
0.00031,0.000109,0,0,0.00031,no
0,0,0,0,0,no
0,0,0,0,0,no
0.002169,0.002829,0,0,0.003408,no
0.000651,0.002067,0,0,0.002169,no
0.001317,0.001741,0,0,0.002169,no
0,0,0,0,0,no
0.002169,0.003917,0.03125,0,0.003873,no
0.000155,0.000109,0,0,0.000155,no
0.002169,0.002938,0.03125,0,0.004028,no
0.002091,0.002938,0,0,0.004028,no
0.00031,0.000109,0.0625,0.333333,0.00031,no
0,0,0,0,0,no
0.00031,0.000109,0.03125,0,0.00031,no
0.000775,0.000435,0,0,0.000775,yes
0.003047,0.003156,0.125,0.333333,0.002634,no
0.002169,0.00272,0.09375,0.333333,0.002634,no
0.003641,0.006311,0,0.666667,0.005112,no
0.002091,0.001959,0,0,0.002479,no
0.000775,0.000435,0,0,0.000775,yes
0.00031,0.000109,0,0,0.00031,no
0.002711,0.0037,0.03125,0,0.005112,no
0.008443,0.011643,0.46875,0.666667,0.00914,no
0,0,0.03125,0,0,no
0,0,0.03125,0,0,no
0,0,0,0,0,no
0.001084,0.001197,0.03125,0,0.00093,no
0.00062,0.000326,0,0,0.00062,no
0.000775,0.000435,0,0,0.000775,yes
0.004397,0.022307,0.3125,0.666667,0.014253,no
0.00062,0.000544,0,0,0.00062,no
0.000569,0.000762,0,0,0.00062,no
0.00031,0.000109,0,0,0.00031,no
0,0,0,0,0,no
0.012084,0.008487,0,0,0.012084,no
0.012084,0.008487,0.03125,0,0.012084,yes
0.003253,0.002285,0.03125,0,0.003253,no
0.000465,0.000326,0.0625,0.333333,0.000465,no
0.012084,0.008487,0.03125,0,0.012084,yes
0,0,0,0,0,no
0,0,0,0,0,no
0,0,0.09375,0.333333,0,no
0.006274,0.008705,0.0625,0,0.012084,no
0.012084,0.008487,0,0,0.012084,no
0.012084,0.008487,0.0625,0,0.012084,no
0.012084,0.008487,0.03125,0,0.012084,yes
0.012084,0.008487,0,0,0.012084,no
0.012084,0.008487,0,0,0.012084,no
0.012084,0.008487,0.03125,0,0.012084,yes
0.012084,0.008487,0,0,0.012084,no
0.000697,0.000762,0,0,0.001084,no
0,0,0,0,0,no
0,0,0,0,0,no
0.000465,0.000326,0,0,0.00062,no
0.00031,0.000109,0,0,0.00031,no
0.00062,0.000218,0,0,0.00062,no
0.00031,0.000109,0,0,0.00031,no
0,0,0,0,0,no
0.00031,0.000109,0,0,0.00031,no
0.00093,0.000326,0,0,0.00093,no
0.00093,0.000326,0.09375,0,0.00093,no
0.00062,0.000218,0,0.666667,0.00031,no
0.00031,0.000109,0,0,0.00031,no
0,0,0,0,0,no
0.001162,0.001197,0.15625,0.333333,0.001084,no
0.000387,0.000326,0,0,0.00031,no
0,0,0,0,0,no
0.000387,0.000218,0,0,0.000465,no
0.00031,0.000109,0,0,0.00031,no
0.003098,0.002067,0,0,0.003098,no
0.002479,0.003264,0,0,0.003098,no
0.002479,0.003264,0,0,0.003098,no
0.001859,0.001306,0,0,0.001859,no
0,0,0,0,0,no
0,0,0,0,0,no
0,0,0,0,0,no
0,0,0.09375,0.333333,0,no
0,0,0,0,0,no
0,0,0.09375,0.333333,0,no
0,0,0,0,0,no
0,0,0.0625,0.333333,0,no
0,0,0,0,0,no
0,0,0.0625,0,0,yes
0.001136,0.001197,0.21875,0.333333,0.000775,no
0.000465,0.000109,0.03125,0,0.000465,no
0,0,0.0625,0.333333,0,no
0.002324,0.002612,0,0.333333,0.005577,no
0.001523,0.003917,0.03125,0.333333,0.003563,no
0.003253,0.000326,0.09375,0.333333,0.003253,no
0.000155,0.000109,0,0,0.000155,no
0.000414,0.000435,0,0,0.000465,no
0.000465,0.000218,0,0,0.000465,no
0.005267,0.000326,0,0,0.005267,no
0.005422,0.003482,0,0,0.005422,no
0.005422,0.003482,0,0,0.005422,no
0.005422,0.003482,0,0,0.005422,no
0.002866,0.003591,0.03125,0,0.005422,no
0.005422,0.003482,0,0,0.005422,no
0.004802,0.002612,0,0,0.003408,no
0.001859,0.002285,0,0,0.003408,no
0,0,0,0,0,no
0.001239,0.000871,0,0,0.001239,no
0.001239,0.000871,0,0,0.001239,no
0,0,0,0,0,no
0.001084,0.000762,0,0,0.001084,no
0,0,0.0625,0,0,no
0,0,0.0625,0,0,no
0.00093,0.000326,0,0,0.00093,no
0,0,0,0,0,no
0,0,0,0,0,no
0.003021,0.001741,0.125,0.333333,0.003563,no
0.016731,0.011752,0,0,0.016731,no
0.016731,0.011752,0.09375,0.333333,0.016731,no
0.016731,0.011752,0.03125,0,0.016731,yes
0.016731,0.011752,0.125,0.333333,0.016731,no
0.000775,0.000326,0.09375,0.333333,0.000465,no
0.000775,0.000326,0.09375,0.333333,0.000465,yes
0,0,0.0625,0.666667,0,no
0,0,0,0.333333,0,no
0.000465,0.000218,0.03125,0,0.000465,yes
0.013168,0.009249,0,0.333333,0.013168,no
0.013168,0.009249,0,0.333333,0.013168,no
0.013168,0.009249,0.09375,0.333333,0.013168,no
0.013168,0.009249,0.03125,0,0.013168,no
0.007503,0.021436,0.03125,0.666667,0.02897,no
0.010225,0.020348,0,0,0.02897,no
0.02897,0.019369,0,0,0.02897,no
0.02897,0.019369,0,0,0.02897,no
0.02897,0.019369,0,0,0.02897,no
0.02897,0.019369,0,0,0.02897,no
0.02897,0.019369,0,0,0.02897,no
0.01464,0.019478,0,0,0.02897,no
0.02897,0.019369,0,0,0.02897,no
0.009966,0.019913,0,0,0.02897,no
0.010328,0.020348,0,0,0.02897,no
0.005294,0.020348,0.03125,0,0.02897,no
0.02897,0.019369,0,0,0.02897,no
0.006338,0.036453,0.1875,0.333333,0.02897,yes
0.0134,0.018498,0,0,0.024322,yes
0.002324,0.001415,0,0,0.002324,no
0.003847,0.010555,0.15625,0.333333,0.004957,no
0.003459,0.009684,0.09375,0.333333,0.004957,no
0.00191,0.002612,0.03125,0,0.003408,no
0.005216,0.007182,0.0625,0,0.010999,no
0.00519,0.01284,0,0,0.010999,no
0.004538,0.017954,0.03125,0,0.010999,no
0.011309,0.007182,0,0,0.010534,no
0.003563,0.004679,0,0.333333,0.004028,no
0.010689,0.003264,0,0.333333,0.006662,no
0.007075,0.022198,0.09375,0.666667,0.024322,yes
0.0134,0.018498,0,0,0.024322,yes
0.009346,0.019478,0.03125,0,0.024322,no
0.0134,0.018716,0.03125,0,0.024322,no
0.024322,0.016975,0,0,0.024322,no
0.024322,0.016975,0,0,0.024322,no
0.024322,0.016975,0,0,0.024322,no
0.012316,0.017084,0,0,0.024322,no
0.024322,0.016975,0,0,0.024322,no
0.024322,0.016975,0,0,0.024322,no
0.006352,0.021872,0.0625,0,0.024322,no
0.010586,0.022198,0.03125,0,0.024322,no
0.010586,0.022198,0.03125,0,0.024322,no
0.009682,0.024701,0.0625,0,0.024322,no
0.008476,0.026115,0.03125,0.333333,0.024322,no
0.008133,0.026551,0.0625,0.333333,0.023703,no
0.007359,0.020348,0,0,0.023703,no
0.012006,0.016649,0,0,0.023703,no
0.006197,0.021219,0.0625,0,0.023703,no
0.006855,0.017737,0,0,0.023703,no
0.007204,0.018281,0.0625,0,0.023703,no
0.011929,0.016649,0.09375,0.333333,0.023703,no
0.00031,0.000109,0,0,0.00031,no
0,0,0,0,0,no
0.00093,0.000762,0.15625,0.333333,0.000465,no
0.001394,0.000544,0.09375,0.333333,0.000465,no
0.001084,0.000435,0.03125,0,0.000465,no
0,0,0,0,0,no
0,0,0,0,0,no
0,0,0,0,0,no
0,0,0,0,0,no
0,0,0,0,0,no
0.000956,0.003156,0.03125,0.333333,0.001084,no
0.000542,0.000979,0,0,0.000775,no
0.004648,0.003156,0,0,0.004648,no
0.004648,0.003156,0,0,0.004648,no
0.002401,0.006311,0,0,0.004648,no
0.003098,0.006202,0,0,0.004648,no
0.004028,0.00555,0,0,0.004648,no
0.001445,0.002612,0,0,0.003408,no
0.001936,0.002612,0.03125,0,0.003408,no
0.00031,0.000109,0,0,0.00031,no
0,0,0,0,0,no
0,0,0,0,0,no
0,0,0,0,0,no
0,0,0,0,0,no
0,0,0,0,0,no
0.00031,0.000218,0,0,0.00031,no
0.00093,0.001197,0,0,0.001239,no
0.001859,0.00457,0,0,0.003873,no
0.004028,0.00457,0,0,0.003873,no
0.003098,0.0037,0,0,0.003873,no
0.002324,0.004788,0.03125,0,0.003873,no
0.001571,0.005223,0.0625,0.333333,0.002634,no
0.002307,0.01284,0.0625,0.333333,0.008056,no
0.003176,0.013928,0.1875,0.333333,0.008056,no
0.00062,0.000653,0.15625,0.333333,0.00093,no
0,0,0,0,0,no
0,0,0,0,0,no
0.001859,0.002285,0.21875,0.333333,0.002634,no
0.000465,0.000653,0,0.333333,0.00062,no
0.000775,0.001197,0,0,0.001549,no
0.000697,0.000762,0,0,0.00093,no
0.002324,0.000653,0,0,0.002634,no
0.00229,0.009902,0.375,0.666667,0.004338,yes
0.00031,0.000109,0.0625,0,0.00031,yes
0,0,0.03125,0,0,yes
0.00031,0.000218,0,0,0.00031,no
0.003408,0.002829,0.0625,0.333333,0.009295,yes
0.001084,0.00272,0.0625,0,0.002324,yes
0,0,0,0,0,yes
0.000527,0.000979,0.09375,0.333333,0.00062,yes
0.000542,0.000326,0.03125,0,0.000465,yes
0.001084,0.00185,0.03125,0,0.003408,yes
0.001936,0.002285,0.03125,0,0.002943,no
0.000697,0.000218,0,0,0.001084,no
0.00093,0.000326,0,0,0.00062,no
0,0,0,0,0,no
0.00031,0.000109,0,0,0.00031,no
0.00031,0.000109,0,0,0.00031,no
0.000837,0.002176,0,0,0.002014,no
0.002014,0.001415,0,0,0.002014,no
0.000271,0.000544,0,0,0.00031,no
0.00031,0.000218,0.03125,0,0.00031,no
0.002118,0.002938,0.09375,0.333333,0.002789,no
0.00031,0.000218,0,0,0.00031,no
0.001177,0.002829,0.1875,0.666667,0.001549,no
0,0,0,0,0,no
0.001394,0.000979,0,0,0.001394,no
0.004864,0.01654,0,0,0.012239,no
0.005267,0.021654,0.03125,0,0.012239,no
0.003977,0.023177,0.0625,0,0.012239,no
0.005396,0.022307,0.03125,0,0.012239,no
0.010174,0.021219,0,0,0.012239,no
0.005861,0.023721,0.0625,0,0.012239,yes
0.002576,0.011099,0.09375,0.333333,0.00914,yes
0.00244,0.003373,0.15625,0.333333,0.001704,no
0.001084,0.001088,0.0625,0.333333,0.001084,no
0.001084,0.000762,0,0,0.001084,no
0,0,0,0,0,no
0.001704,0.002067,0,0.333333,0.002014,no
0.00253,0.005005,0.1875,0.333333,0.002014,yes
0.001755,0.003591,0.09375,0,0.002014,yes
0.00031,0.000109,0,0,0.00031,no
0.000465,0.000653,0,0,0.00062,no
0.000878,0.001306,0.125,0.666667,0.001084,no
0.000155,0.000109,0.03125,0,0.000155,no
0,0,0,0,0,no
0,0,0,0,0,no
0,0,0,0,0,no
0.001394,0.000871,0,0,0.001394,no
0.000593,0.00185,0,0,0.001394,no
0.00093,0.001632,0.03125,0,0.001394,no
0.001239,0.00185,0.03125,0,0.001394,no
0.001284,0.003808,0.21875,0.666667,0.001084,yes
0,0,0,0.333333,0,no
0,0,0,0,0,no
0,0,0,0,0,no
0.00062,0.000218,0,0,0.00062,no
0.00031,0.000109,0,0,0.00031,no
0,0,0,0,0,no
0.000465,0.000218,0,0.333333,0.000465,no
0.004183,0.002938,0.0625,0.333333,0.004183,no
0.000775,0.000326,0,0,0.000775,no
0.001239,0.000653,0.03125,0,0.001239,no
0.003331,0.002285,0,0,0.002479,no
0.001472,0.001523,0,0,0.001549,no
0.001239,0.000435,0,0,0.001239,no
0.001859,0.001306,0,0,0.001859,no
0.001136,0.002285,0.125,0,0.001859,no
0.000155,0.000109,0,0,0.000155,no
0.00031,0.000109,0,0,0.00031,no
0,0,0,0,0,no
0,0,0,0,0,no
0,0,0.0625,0,0,no
0,0,0,0,0,no
0,0,0,0,0,no
0,0,0,0,0,no
0,0,0,0,0,no
0,0,0,0,0,no
0,0,0,0,0,no
0,0,0,0,0,no
0,0,0,0,0,no
0.003718,0.005223,0,0,0.005887,no
0.005887,0.004135,0,0,0.005887,no
0.005887,0.004135,0,0,0.005887,no
0.001394,0.000979,0,0,0.001394,no
0.005267,0.0037,0,0,0.005267,no
0.005267,0.0037,0,0,0.005267,no
0.005267,0.0037,0,0,0.005267,no
0.005267,0.0037,0,0,0.005267,no
0,0,0,0,0,no
0,0,0,0,0,no
0.002789,0.001959,0,0,0.002789,no
0.002789,0.001959,0,0,0.002789,no
0.002789,0.001959,0,0,0.002789,no
0.005887,0.004135,0,0,0.005887,no
0.005887,0.004135,0,0,0.005887,no
0.005887,0.004135,0,0,0.005887,no
0.005887,0.004135,0,0,0.005887,no
0,0,0,0,0,no
0,0,0,0,0,no
0,0,0,0,0,no
0,0,0,0,0,no
0,0,0,0,0,no
0,0,0,0,0,no
0,0,0,0,0,no
0,0,0,0,0,no
0,0,0,0,0,no
0,0,0,0,0,no
0.00062,0.000653,0.03125,0,0.00093,no
0,0,0,0,0,no
0,0,0,0,0,no
0.003253,0.002285,0,0,0.003253,no
0,0,0,0,0,yes
0.004183,0.002938,0,0,0.004183,yes
0.004183,0.002938,0,0,0.004183,no
0,0,0,0,0,no
0.005422,0.007617,0,0,0.005422,no
0.005422,0.007617,0,0,0.005422,no
0,0,0,0,0,no
0,0,0,0,0,no
0,0,0,0,0,no
0,0,0,0,0,no
0.00031,0.000109,0,0,0.00031,no
0,0,0,0,0,no
0.00031,0.000109,0,0,0.00031,no
0,0,0,0,0,no
0,0,0,0,0,no
0.001859,0.001306,0,0,0.001859,no
0.002169,0.001523,0,0,0.002169,no
0.002014,0.002829,0,0,0.002169,no
0,0,0,0,0,no
0,0,0,0,0,no
0,0,0,0,0,no
0,0,0,0,0,no
0,0,0,0,0,no
0,0,0,0,0,no
0,0,0,0,0,no
0,0,0,0,0,no
0,0,0,0,0,no
0.00031,0.000109,0,0,0.00031,no
0,0,0,0,0,no
0,0,0.03125,0,0,no
0,0,0.03125,0,0,no
0,0,0.03125,0,0,no
0,0,0.0625,0,0,no
0,0,0,0,0,no
0.002014,0.00272,0,0,0.003098,no
0.003098,0.002176,0.03125,0,0.003098,no
0,0,0,0,0,no
0.016421,0.011534,0,0,0.016421,no
0.016421,0.011534,0,0,0.016421,no
0.016421,0.011534,0,0,0.016421,no
0.016421,0.011534,0,0,0.016421,no
0.016421,0.011534,0,0,0.016421,no
0.016421,0.011534,0,0,0.016421,no
0.016421,0.011534,0,0,0.016421,no
0.016421,0.011534,0,0,0.016421,no
0.016421,0.011534,0,0,0.016421,no
0,0,0,0,0,no
0,0,0,0,0,no
0.004028,0.002829,0,0,0.004028,no
0.004028,0.002829,0,0,0.004028,no
0.007126,0.005005,0,0,0.007126,no
0.007126,0.005005,0,0,0.007126,no
0.007126,0.005005,0,0,0.007126,no
0.007126,0.005005,0,0,0.007126,no
0,0,0,0,0,no
0,0,0,0,0,no
0.002943,0.002067,0,0,0.002943,no
0.002943,0.002067,0,0,0.002943,no
0.002943,0.002067,0,0,0.002943,yes
0.003718,0.002612,0,0,0.003718,no
0.003718,0.002612,0,0,0.003718,no
0.00062,0.000435,0,0,0.00062,no
0.00062,0.000435,0,0,0.00062,no
0,0,0.03125,0,0,no
0.00031,0.000109,0.0625,0,0.00031,no
0,0,0,0,0,no
0.015957,0.011099,0,0,0.015957,no
0.015957,0.011099,0,0,0.015957,no
0.009527,0.013058,0.15625,0.333333,0.015957,no
0.015957,0.011099,0.0625,0,0.015957,no
0.005732,0.011534,0.125,0.333333,0.015957,no
0.005732,0.011534,0.125,0.666667,0.015957,no
0.005783,0.011861,0.09375,0.333333,0.015957,no
0.015957,0.011099,0.0625,0,0.015957,no
0.00062,0.000544,0.0625,0.666667,0.000465,no
0.000465,0.000435,0.0625,0.333333,0.000465,no
0.001936,0.002394,0.03125,0,0.003253,no
0.004183,0.002176,0.0625,0,0.003408,yes
0.000775,0.000544,0,0,0.000775,no
0.000387,0.000218,0,0,0.000465,no
0.001239,0.00185,0.0625,0.333333,0.001704,yes
0.001033,0.000871,0.0625,0,0.001704,yes
0.00093,0.001088,0,0,0.001549,no
0.00031,0.000109,0.03125,0,0.00031,no
0,0,0,0.333333,0,no
0.00253,0.003156,0.0625,0.333333,0.003408,yes
0.002943,0.000762,0,0,0.002943,yes
0.001549,0.002394,0.0625,0,0.003408,yes
0,0,0,0,0,no
0,0,0.03125,0,0,no
0,0,0,0,0,no
0,0,0,0,0,no
0.000775,0.000544,0,0,0.000775,no
0.001627,0.002285,0.03125,0,0.002479,no
0.000465,0.000218,0,0,0.000465,no
0.00031,0.000109,0.03125,0,0.00031,no
0.001239,0.001523,0.125,0.333333,0.001704,yes
0.00031,0.000109,0.03125,0,0.00031,yes
0.00031,0.000109,0.03125,0,0.00031,yes
0,0,0,0,0,no
0.00062,0.000435,0.0625,0.333333,0.00062,no
0.00062,0.000435,0.03125,0,0.00062,no
0.001549,0.000109,0,0,0.001549,no
0.001239,0.000109,0.03125,0,0.001239,no
0.001549,0.000109,0,0,0.001549,no
0,0,0,0,0,no
0,0,0,0,0,no
0,0,0.03125,0.666667,0,no
0,0,0,0,0,no
0,0,0,0,0,no
0,0,0.0625,0.666667,0,no
0.00062,0.000435,0.0625,0.333333,0.00062,no
0,0,0.03125,0,0,no
0,0,0,0,0,no
0.00062,0.000435,0.09375,0.666667,0.00062,no
0.00062,0.000435,0.0625,0.333333,0.00062,no
0,0,0,0,0,no
0.00031,0.000218,0,0,0.00031,no
0.014717,0.010337,0,0,0.014717,no
0.005473,0.01099,0.125,0,0.014717,no
0.007746,0.010555,0.09375,0,0.014717,yes
0.014717,0.010337,0.03125,0,0.014717,yes
0.014717,0.010337,0.0625,0,0.014717,yes
0,0,0,0,0,no
0,0,0.03125,0,0,no
0,0,0,0,0,no
0,0,0,0,0,no
0.000775,0.000544,0,0,0.000775,no
0.001704,0.002394,0.03125,0,0.002634,no
0.00031,0.000109,0.0625,0,0.00031,no
0.00062,0.000218,0,0,0.00062,no
0.000775,0.000218,0,0,0.000775,no
0.002169,0.001523,0,0,0.002169,no
0.001859,0.001197,0,0,0.001859,no
0.001859,0.001197,0,0,0.001859,no
0.001394,0.000979,0,0,0.001394,no
0.001239,0.001415,0,0,0.001394,no
0.00093,0.001197,0,0,0.001394,no
0.002014,0.000544,0,0,0.001084,no
0.001033,0.001306,0.125,0.333333,0.000775,no
0.00062,0.000218,0.0625,0,0.00062,no
0.00031,0.000109,0,0,0.00031,no
0.00031,0.000109,0,0,0.00031,no
0.002789,0.0037,0,0,0.005267,no
0.001963,0.003808,0,0,0.005267,no
0.00031,0.000109,0,0,0.00031,no
0.00031,0.000109,0,0,0.00031,no
0,0,0,0.333333,0,no
0.011619,0.008161,0,0,0.011619,no
0.011619,0.008161,0,0,0.011619,no
0.011619,0.008161,0,0,0.011619,no
0.011619,0.008161,0,0,0.011619,no
0.011619,0.008161,0,0,0.011619,yes
0.011619,0.008161,0,0,0.011619,yes
0.011619,0.008161,0,0,0.011619,no
0.011619,0.008161,0,0,0.011619,no
0.011619,0.008161,0,0,0.011619,no
0.007591,0.005223,0,0,0.007591,no
0.007591,0.005223,0,0,0.007591,no
0.007591,0.005223,0,0,0.007591,no
0.007591,0.005223,0,0,0.007591,no
0.001704,0.001197,0,0,0.001704,no
0.008598,0.006529,0.375,0.666667,0.005732,no
0.008753,0.010773,0.1875,0.333333,0.011309,no
0.011309,0.007943,0.03125,0,0.011309,no
0,0,0,0,0,no
0,0,0,0,0,no
0,0,0,0,0,no
0.001394,0.000979,0,0,0.001394,no
0.005422,0.003808,0,0,0.005422,no
0.005422,0.003808,0,0,0.005422,no
0.005422,0.003808,0,0,0.005422,no
0.005422,0.003808,0,0,0.005422,no
0.005422,0.003808,0,0,0.005422,no
0,0,0,0,0,no
0,0,0,0,0,no
0,0,0.0625,0.333333,0,no
0,0,0,0,0,no
0,0,0.03125,0,0,no
0,0,0.03125,0,0,no
0,0,0.0625,0,0,no
0,0,0.0625,0,0,no
0,0,0,0,0,no
0,0,0.0625,0,0,no
0,0,0,0,0,no
0,0,0,0,0,no
0.001859,0.001197,0.03125,0,0.001859,no
0.00031,0.000109,0.03125,0,0.00031,no
0,0,0.15625,0.333333,0,no
0,0,0.15625,0.333333,0,no
0,0,0.0625,0,0,no
0,0,0.03125,0,0,no
0,0,0.03125,0,0,no
0.000775,0.000326,0.0625,0,0.000465,no
0,0,0.0625,0,0,no
0,0,0.09375,0.333333,0,no
0,0,0.09375,0.333333,0,no
0,0,0.09375,0.333333,0,no
0,0,0.09375,0,0,no
0,0,0.0625,0.333333,0,no
0,0,0.0625,0,0,no
0,0,0,0.333333,0,no
0,0,0,0,0,no
0,0,0.1875,0.666667,0,no
0,0,0.15625,0.333333,0,no
0,0,0.03125,0,0,no
0.011774,0.001415,0.03125,0,0.011774,no
0.011774,0.001415,0.03125,0,0.011774,no
0.005422,0.001088,0.0625,0,0.002324,yes
0.002634,0.001632,0.0625,0,0.002634,yes
0.003718,0.000326,0,0,0.003718,no
0,0,0,0,0,no
0,0,0,0,0,no
0,0,0,0,0,no
0,0,0.09375,0.666667,0,no
0,0,0.0625,0.333333,0,no
0,0,0,0,0,no
0,0,0,0,0,no
0,0,0,0,0,no
0,0,0,0,0,no
0.00093,0.001523,0.03125,0.333333,0.001394,no
0.00062,0.000218,0.34375,0.666667,0.00031,no
0,0,0.03125,0,0,no
0.00031,0.000109,0,0,0.00031,no
0.000697,0.000762,0,0,0.000775,no
0.00031,0.000109,0,0,0.00031,no
0.001007,0.000653,0.28125,0.333333,0.00093,no
0.002789,0.001959,0.25,0.333333,0.002789,no
0.001433,0.003482,0.3125,0.666667,0.001549,no
0.001239,0.002394,0.0625,0,0.002789,no
0.002789,0.001959,0,0,0.002789,no
0.013943,0.009684,0.15625,0.333333,0.013943,no
0.013943,0.009684,0.03125,0,0.013943,no
0.013943,0.009684,0.03125,0,0.013943,no
0.013943,0.009684,0.125,0,0.013943,no
0.005473,0.010773,0.09375,0,0.013943,no
0.005371,0.010664,0.09375,0.333333,0.013943,no
0,0,0.09375,0.333333,0,no
0.000465,0.000218,0.09375,0.333333,0.000465,no
0,0,0.125,0.333333,0,no
0,0,0.03125,0,0,no
0,0,0,0,0,no
0.001549,0.000762,0.1875,0.333333,0.00093,no
0,0,0,0,0,no
0,0,0,0,0,no
0,0,0,0,0,no
0,0,0,0,0,no
0,0,0,0,0,no
0,0,0,0,0,no
0,0,0,0,0,no
0,0,0,0,0,no
0,0,0,0,0,no
0,0,0,0,0,no
0,0,0.03125,0,0,no
0,0,0,0,0,no
0,0,0,0,0,no
0,0,0.03125,0,0,no
0,0,0.03125,0,0,no
0,0,0.03125,0,0,no
0,0,0.03125,0,0,no
0,0,0,0,0,no
0,0,0,0,0,no
0,0,0,0,0,no
0,0,0,0,0,no
0,0,0.1875,0.333333,0,no
0,0,0.03125,0,0,no
0,0,0,0,0,no
0,0,0,0,0,no
0,0,0,0,0,no
0,0,0,0,0,no
0,0,0.15625,0.333333,0,no
0,0,0,0,0,no
0,0,0,0,0,no
0,0,0,0,0,no
0,0,0,0,0,no
0,0,0.09375,0,0,no
0,0,0.03125,0.333333,0,no
0,0,0.03125,0,0,no
0,0,0.03125,0,0,no
0,0,0.03125,0,0,no
0,0,0,0,0,no
0,0,0,0,0,no
0,0,0,0.333333,0,no
0,0,0,0.333333,0,no
0,0,0,0,0,no
0,0,0,0,0,no
0,0,0.0625,0,0,no
0,0,0,0,0,no
0,0,0.125,0.333333,0,no
0,0,0.3125,1,0,no
0,0,0,0,0,no
0,0,0,0,0,no
0,0,0,0,0,no
0,0,0,0,0,no
0,0,0,0,0,no
0,0,0,0,0,no
0,0,0,0,0,no
0,0,0,0,0,no
0,0,0,0,0,no
0,0,0,0,0,no
0,0,0.28125,0.333333,0,no
0,0,0,0,0,no
0,0,0,0,0,no
0,0,0,0,0,no
0,0,0,0,0,no
0,0,0,0,0,no
0,0,0,0,0,no
0,0,0,0,0,no
0,0,0,0,0,no
0,0,0,0,0,no
0,0,0,0,0,no
0,0,0,0,0,no
0,0,0,0,0,no
0,0,0,0,0,no
0,0,0,0,0,no
0,0,0,0,0,no
0,0,0,0,0,no
0,0,0,0,0,no
0,0,0,0,0,no
0,0,0,0,0,no
0,0,0,0,0,no
0,0,0,0,0,no
0,0,0,0,0,no
0,0,0,0,0,no
0,0,0,0,0,no
0,0,0,0,0,no
0,0,0,0,0,no
0,0,0,0,0,no
0,0,0,0,0,no
0,0,0,0,0,no
0,0,0,0,0,no
0,0,0,0,0,no
0,0,0,0,0,no
0,0,0,0,0,no
0,0,0.03125,0,0,no
0,0,0,0.333333,0,no
0,0,0,0.333333,0,no
0,0,0,0,0,no
0,0,0,0,0,no
0,0,0,0,0,no
0,0,0,0.333333,0,no
0,0,0,0,0,no
0,0,0,0,0,no
0,0,0,0,0,no
0,0,0,0,0,no
0,0,0,0,0,no
0,0,0,0,0,no
0,0,0,0,0,no
0,0,0,0,0,no
0,0,0,0,0,no
0,0,0,0,0,no
0,0,0.0625,0,0,no
0,0,0.03125,0,0,no
0,0,0,0,0,no
0,0,0.03125,0,0,no
0,0,0.09375,0.333333,0,no
0,0,0,0,0,no
0,0,0,0,0,no
0,0,0,0,0,no
0,0,0,0,0,no
0,0,0,0,0,no
0,0,0,0,0,no
0,0,0,0,0,no
0,0,0.03125,0,0,no
0,0,0,0,0,no
0,0,0.09375,0,0,no
0,0,0.03125,0,0,no
0,0,0.0625,0,0,no
0,0,0,0,0,no
0,0,0.03125,0.333333,0,no
0,0,0,0,0,no
0,0,0,0,0,no
0,0,0,0,0,no
0,0,0,0,0,no
0,0,0,0,0,no
0,0,0,0,0,no
0,0,0,0,0,no
0,0,0,0,0,no
0.001239,0.000871,0.1875,0.333333,0.001239,no
0,0,0.09375,0,0,no
0,0,0.09375,0,0,no
0,0,0,0,0,no
0,0,0.03125,0,0,no
0,0,0,0,0,no
0,0,0,0,0,no
0,0,0.03125,0,0,no
0,0,0.03125,0,0,no
0.00031,0.000544,0,0,0.00031,no
0.001936,0.004244,0.09375,0.333333,0.003408,yes
0.001576,0.005876,0.0625,0.333333,0.003408,yes
0,0,0,0,0,yes
0.001188,0.002067,0.0625,0.666667,0.001084,no
0,0,0.03125,0,0,yes
0,0,0,0,0,yes
0.000736,0.001523,0.0625,0.666667,0.001084,no
0,0,0.03125,0,0,yes
0,0,0,0,0,yes
0.000775,0.000544,0.0625,0.666667,0.000775,no
0,0,0.03125,0,0,yes
0,0,0,0,0,yes
0.001549,0.000871,0,0,0.001549,no
0,0,0,0,0,no
0,0,0,0,0,no
0,0,0.03125,0,0,no
0,0,0,0,0,no
0,0,0.09375,0.333333,0,no
0,0,0.03125,0.333333,0,no
0.01007,0.007073,0,0,0.01007,no
0.01007,0.007073,0.03125,0,0.01007,no
0.01007,0.007073,0.03125,0,0.01007,no
0.00031,0.000109,0,0,0.00031,no
0,0,0,0,0,no
0,0,0,0,0,no
0.001007,0.003917,0.03125,0,0.002789,no
0.003873,0.00272,0,0,0.003873,no
0.001549,0.007073,0.03125,0,0.004183,no
0.002905,0.008161,0.03125,0,0.004183,no
0.002582,0.005441,0,0,0.004183,no
0.002479,0.001741,0,0,0.002479,no
0.00062,0.000218,0,0,0.00062,no
0.004415,0.011752,0.0625,0,0.010844,no
0.004454,0.011861,0.03125,0,0.010844,no
0.003486,0.008052,0.0625,0,0.010844,no
0.003977,0.007835,0,0,0.010844,no
0.004028,0.00827,0,0,0.010844,no
0.003292,0.00914,0,0,0.010844,no
0.010844,0.007617,0,0,0.010844,no
0.00062,0.000435,0,0,0.00062,no
0.002169,0.001088,0,0,0.002169,no
0.001627,0.001632,0,0,0.001859,no
0.000155,0.000109,0,0,0.000155,no
0.000465,0.000109,0,0,0.000465,no
0.00031,0.000109,0.0625,0,0.00031,no
0.001472,0.002938,0.1875,0.333333,0.002014,no
0.000813,0.002067,0.125,0.333333,0.001394,no
0.000155,0.000109,0,0,0.000155,no
0.002767,0.01197,1,0.666667,0.006971,no
0,0,0,0.333333,0,no
0,0,0.09375,0.666667,0,no
0,0,0,0,0,no
0,0,0,0,0,no
0,0,0,0,0,no
0,0,0,0,0,no
0,0,0,0,0,no
0,0,0,0,0,no
0,0,0,0,0,no
0,0,0,0,0,no
0,0,0,0,0,no
0.000465,0.000109,0.03125,0,0.000465,no
0,0,0,0,0,no
0,0,0,0,0,no
0,0,0,0,0,no
0,0,0,0,0,no
0,0,0,0,0,no
0,0,0,0,0,no
0,0,0,0.333333,0,no
0,0,0,0,0,no
0,0,0,0.333333,0,no
0.010225,0.007182,0.03125,0.333333,0.010225,no
0.010225,0.007182,0.0625,0,0.010225,no
0.005267,0.007291,0.03125,0,0.010225,no
0.010225,0.007182,0,0,0.010225,no
0,0,0,0,0,no
0,0,0,0,0,no
0,0,0,0,0,no
0,0,0,0,0,no
0,0,0,0,0,no
0,0,0,0,0,no
0,0,0,0,0,no
0,0,0,0,0,no
0,0,0,0,0,no
0,0,0,0,0,no
0,0,0,0,0,no
0,0,0,0,0,no
0,0,0,0,0,no
0,0,0,0,0,no
0,0,0,0,0,no
0,0,0,0,0,no
0,0,0,0,0,no
0.001239,0.000871,0,0,0.001239,no
0.001239,0.000871,0,0,0.001239,no
0.001239,0.000871,0,0,0.001239,no
0.001239,0.000871,0,0,0.001239,no
0.00062,0.000435,0,0,0.00062,no
0.00062,0.000435,0,0,0.00062,no
0,0,0,0,0,no
0,0,0,0,0,no
0,0,0,0,0,no
0,0,0,0,0,no
0,0,0,0,0,no
0,0,0,0,0,no
0,0,0,0,0,no
0,0,0.125,0,0,no
0,0,0,0,0,no
0,0,0,0,0,no
0,0,0,0,0,no
0,0,0,0,0,no
0,0,0,0,0,no
0,0,0.03125,0,0,no
0,0,0,0,0,no
0.010689,0.007508,0,0,0.010689,no
0.010689,0.007508,0.09375,0,0.010689,no
0.010689,0.007508,0,0,0.010689,no
0.010689,0.007508,0,0,0.010689,no
0.010689,0.007508,0,0,0.010689,no
0.010689,0.007508,0,0,0.010689,no
0.010689,0.007508,0,0,0.010689,no
0.010689,0.007508,0.03125,0,0.010689,no
0.010689,0.007508,0,0,0.010689,no
0,0,0,0,0,no
0,0,0,0,0,no
0,0,0,0,0,no
0,0,0,0,0,no
0,0,0,0,0,no
0,0,0,0,0,no
0,0,0,0,0,no
0,0,0,0,0,no
0,0,0,0,0,no
0,0,0,0,0,no
0,0,0,0,0,no
0,0,0,0,0,no
0,0,0,0,0,no
0,0,0,0,0,no
0,0,0,0,0,no
0,0,0,0,0,no
0,0,0,0,0,no
0,0,0.0625,0,0,no
0,0,0.0625,0,0,no
0,0,0.09375,0.333333,0,no
0,0,0,0,0,no
0,0,0,0,0,no
0,0,0,0,0,no
0,0,0,0,0,no
0,0,0,0,0,no
0,0,0,0,0,no
0,0,0,0,0,no
0,0,0.03125,0,0,no
0,0,0.03125,0,0,no
0,0,0,0,0,no
0,0,0,0,0,no
0,0,0,0,0,no
0,0,0,0,0,no
0,0,0,0,0,no
0,0,0,0,0,no
0,0,0,0,0,no
0,0,0,0,0,no
0,0,0,0,0,no
0,0,0,0,0,no
0,0,0,0,0,no
0,0,0.03125,0,0,no
0,0,0,0,0,no
0,0,0,0,0,no
0,0,0,0,0,no
0,0,0,0,0,no
0,0,0,0,0,no
0,0,0.03125,0,0,no
0,0,0.03125,0,0,no
0,0,0.0625,0,0,no
0,0,0.03125,0,0,no
0,0,0.125,0,0,no
0,0,0.03125,0,0,no
0,0,0.1875,0.333333,0,no
0,0,0.03125,0,0,no
0,0,0,0,0,no
0,0,0,0,0,no
0,0,0,0,0,no
0,0,0.03125,0,0,no
0,0,0.03125,0,0,no
0,0,0,0,0,no
0,0,0,0,0,no
0,0,0,0,0,no
0,0,0,0,0,no
0,0,0,0,0,no
0,0,0,0,0,no
0,0,0,0,0,no
0,0,0,0,0,no
0,0,0,0,0,no
0,0,0,0,0,no
0,0,0,0,0,no
0,0,0,0,0,no
0,0,0,0,0,no
0,0,0,0,0,no
0,0,0,0,0,no
0,0,0,0,0,no
0,0,0,0,0,no
0,0,0,0,0,no
0,0,0,0,0,no
0,0,0,0,0,no
0,0,0,0,0,no
0.003098,0.002176,0,0,0.003098,no
0.003098,0.002176,0,0,0.003098,no
0.003098,0.002176,0,0,0.003098,no
0.003098,0.002176,0,0,0.003098,no
0,0,0,0,0,no
0.00093,0.001306,0,0,0.001549,no
0.001549,0.001088,0,0,0.001549,no
0.000155,0.000109,0,0,0.000155,no
0,0,0.21875,0.333333,0,no
0.000697,0.000979,0.28125,0.333333,0.00093,no
0.00093,0.001306,0.3125,0.666667,0.001239,no
0,0,0,0,0,no
0,0,0,0,0,no
0,0,0,0,0,no
0,0,0,0,0,no
0,0,0,0,0,no
0,0,0,0,0,no
0,0,0,0,0,no
0,0,0.03125,0,0,no
0,0,0.03125,0,0,no
0,0,0,0,0,no
0,0,0,0,0,no
0,0,0,0,0,no
0,0,0,0,0,no
0,0,0,0,0,no
0,0,0,0,0,no
0,0,0,0,0,no
0,0,0,0,0,no
0,0,0,0,0,no
0,0,0,0,0,no
0,0,0,0,0,no
0,0,0.03125,0,0,no
0.00062,0.000435,0,0,0.00062,no
0.00031,0.000218,0.03125,0.333333,0.00031,no
0,0,0,0,0,no
0,0,0,0,0,no
0,0,0,0,0,no
0,0,0.03125,0,0,no
0,0,0.03125,0,0,no
0.00093,0.001306,0.3125,0.666667,0.001239,no
0,0,0.03125,0,0,no
0.000697,0.000979,0.46875,0.666667,0.00093,no
0,0,0.1875,0.333333,0,no
0.001627,0.002285,0.46875,0.666667,0.002479,no
0,0,0,0,0,no
0,0,0,0,0,no
0,0,0,0,0,no
0,0,0,0,0,no
0,0,0,0,0,no
0,0,0,0,0,no
0,0,0,0,0,no
0,0,0,0,0,no
0,0,0,0,0,no
0,0,0,0,0,no
0,0,0,0,0,no
0,0,0,0,0,no
0,0,0,0,0,no
0,0,0,0,0,no
0,0,0,0,0,no
0,0,0,0,0,no
0,0,0,0,0,no
0,0,0,0,0,no
0,0,0.03125,0,0,no
0,0,0,0,0,no
0,0,0.03125,0,0,no
0,0,0.03125,0,0,no
0,0,0.03125,0,0,no
0,0,0.03125,0,0,no
0,0,0.0625,0,0,no
0,0,0.03125,0,0,no
0,0,0.0625,0,0,no
0,0,0.0625,0,0,no
0,0,0.03125,0,0,no
0,0,0.03125,0,0,no
0,0,0.03125,0,0,no
0,0,0.03125,0,0,no
0,0,0.03125,0,0,no
0,0,0,0,0,no
0,0,0.03125,0,0,no
0.007436,0.005223,0.03125,0,0.007436,no
0.007436,0.005223,0,0,0.007436,no
0.007436,0.005223,0,0,0.007436,no
0.007436,0.005223,0,0,0.007436,no
0.007436,0.005223,0.03125,0,0.007436,no
0.007436,0.005223,0,0,0.007436,no
0.007436,0.005223,0,0,0.007436,no
0.007436,0.005223,0.03125,0,0.007436,no
0,0,0,0,0,no
0.129667,0.091077,0,0,0.129667,no
0.129667,0.091077,0,0,0.129667,no
0.129667,0.091077,0.03125,0,0.129667,no
0.064988,0.091186,0,0,0.129667,no
0.044978,0.094233,0,0,0.129667,no
0.044978,0.094233,0,0,0.129667,no
0.06646,0.093362,0,0,0.129667,no
0.044411,0.093471,0,0,0.129667,no
0.129667,0.091077,0,0,0.129667,no
0.129667,0.091077,0,0,0.129667,no
0.129667,0.091077,0,0,0.129667,no
0.129667,0.091077,0,0,0.129667,no
0.129667,0.091077,0,0,0.129667,no
0.129667,0.091077,0,0,0.129667,no
0.129667,0.091077,0,0,0.129667,no
0.129667,0.091077,0,0,0.129667,no
0.129667,0.091077,0,0,0.129667,no
0.129667,0.091077,0,0,0.129667,no
0.129667,0.091077,0,0,0.129667,no
0.129667,0.091077,0.0625,0,0.129667,no
0.129667,0.091077,0.03125,0,0.129667,no
0.129667,0.091077,0,0,0.129667,no
0.129667,0.091077,0,0,0.129667,no
0.129667,0.091077,0,0,0.129667,no
0.129667,0.091077,0.09375,0,0.129667,no
0.129667,0.091077,0.0625,0,0.129667,no
0.129667,0.091077,0.09375,0,0.129667,no
0.129667,0.091077,0,0,0.129667,no
0.129667,0.091077,0,0,0.129667,no
0.129667,0.091077,0,0,0.129667,no
0.129667,0.091077,0,0,0.129667,no
0.129667,0.091077,0,0,0.129667,no
0.129667,0.091077,0,0,0.129667,no
0.129667,0.091077,0,0,0.129667,no
0.129667,0.091077,0.03125,0,0.129667,no
0.129667,0.091077,0.03125,0,0.129667,no
0.129667,0.091077,0,0,0.129667,no
0.129667,0.091077,0,0,0.129667,no
0.129667,0.091077,0,0,0.129667,no
0.129667,0.091077,0,0,0.129667,no
0.129667,0.091077,0,0,0.129667,no
0.129667,0.091077,0,0,0.129667,no
0.129667,0.091077,0,0,0.129667,no
0.129667,0.091077,0,0,0.129667,no
0.129667,0.091077,0,0,0.129667,no
0.129667,0.091077,0,0,0.129667,no
0.129667,0.091077,0,0,0.129667,no
0.129667,0.091077,0.03125,0,0.129667,no
0.129667,0.091077,0,0,0.129667,no
0.129667,0.091077,0,0,0.129667,no
0.129667,0.091077,0,0,0.129667,no
0.129667,0.091077,0,0,0.129667,no
0.129667,0.091077,0,0,0.129667,no
0.129667,0.091077,0.03125,0,0.129667,no
0.129667,0.091077,0.03125,0,0.129667,no
0.129667,0.091077,0.0625,0,0.129667,no
0.129667,0.091077,0.03125,0,0.129667,no
0.129667,0.091077,0.09375,0,0.129667,no
0.129667,0.091077,0.0625,0,0.129667,no
0.129667,0.091077,0.1875,0.333333,0.129667,no
0.129667,0.091077,0,0,0.129667,no
0.129667,0.091077,0.03125,0,0.129667,no
0.129667,0.091077,0.03125,0,0.129667,no
0.129667,0.091077,0,0,0.129667,no
0.129667,0.091077,0,0,0.129667,no
0.129667,0.091077,0,0,0.129667,no
0.129667,0.091077,0,0,0.129667,no
0.129667,0.091077,0,0,0.129667,no
0.129667,0.091077,0,0,0.129667,no
0.129667,0.091077,0,0,0.129667,no
0.129667,0.091077,0,0,0.129667,no
0.129667,0.091077,0,0,0.129667,no
0.129667,0.091077,0,0,0.129667,no
0.129667,0.091077,0,0,0.129667,no
0.129667,0.091077,0,0,0.129667,no
0.129667,0.091077,0,0,0.129667,no
0.129667,0.091077,0,0,0.129667,no
0.129667,0.091077,0,0,0.129667,no
0.129667,0.091077,0,0,0.129667,no
0.129667,0.091077,0,0,0.129667,no
0.129667,0.091077,0,0,0.129667,no
0.129667,0.091077,0,0,0.129667,no
0.129667,0.091077,0.03125,0,0.129667,no
0.129667,0.091077,0.03125,0,0.129667,no
0.129667,0.091077,0.0625,0,0.129667,no
0.129667,0.091077,0,0,0.129667,no
0.129667,0.091077,0,0,0.129667,no
0.129667,0.091077,0,0,0.129667,no
0.129667,0.091077,0,0,0.129667,no
0.129667,0.091077,0,0,0.129667,no
0.129667,0.091077,0,0,0.129667,no
0.129667,0.091077,0,0,0.129667,no
0.129667,0.091077,0.03125,0,0.129667,no
0.129667,0.091077,0.03125,0,0.129667,no
0.129667,0.091077,0,0,0.129667,no
0.129667,0.091077,0,0,0.129667,no
0.129667,0.091077,0,0,0.129667,no
0.129667,0.091077,0,0,0.129667,no
0.129667,0.091077,0,0,0.129667,no
0.129667,0.091077,0,0,0.129667,no
0.129667,0.091077,0,0,0.129667,no
0.129667,0.091077,0,0,0.129667,no
0.129667,0.091077,0,0,0.129667,no
0.129667,0.091077,0,0,0.129667,no
0.129667,0.091077,0,0,0.129667,no
0.129667,0.091077,0.03125,0,0.129667,no
0.129667,0.091077,0,0,0.129667,no
0.129667,0.091077,0,0,0.129667,no
0.129667,0.091077,0,0,0.129667,no
0.129667,0.091077,0,0,0.129667,no
0.129667,0.091077,0,0,0.129667,no
0.129667,0.091077,0.03125,0,0.129667,no
0.129667,0.091077,0.03125,0,0.129667,no
0.129667,0.091077,0.03125,0,0.129667,no
0.129667,0.091077,0.03125,0,0.129667,no
0.129667,0.091077,0.09375,0,0.129667,no
0.129667,0.091077,0,0,0.129667,no
0.129667,0.091077,0.15625,0.333333,0.129667,no
0.129667,0.091077,0.03125,0,0.129667,no
0.117583,0.16518,0,0,0.129667,no
0.1055,0.074102,0,0,0.1055,no
0.1055,0.074102,0,0,0.1055,no
0.053524,0.07519,0.03125,0,0.1055,no
0.053524,0.07519,0.03125,0,0.1055,no
0.1055,0.074102,0,0,0.1055,no
0.1055,0.074102,0,0,0.1055,no
0.053215,0.074538,0,0,0.1055,no
0.1055,0.074102,0,0,0.1055,no
0.1055,0.074102,0,0,0.1055,no
0.1055,0.074102,0,0,0.1055,no
0.053989,0.075843,0,0,0.1055,no
0.053989,0.075843,0,0,0.1055,no
0.053989,0.075843,0,0,0.1055,no
0.053989,0.075843,0,0,0.1055,no
0.053989,0.075843,0,0,0.1055,no
0.053989,0.075843,0,0,0.1055,no
0.1055,0.074102,0,0,0.1055,no
0.1055,0.074102,0,0,0.1055,no
0.1055,0.074102,0,0,0.1055,no
0.1055,0.074102,0,0,0.1055,no
0.1055,0.074102,0,0,0.1055,no
0.1055,0.074102,0,0,0.1055,no
0.1055,0.074102,0.0625,0,0.1055,no
0.1055,0.074102,0.03125,0,0.1055,no
0.1055,0.074102,0,0,0.1055,no
0.1055,0.074102,0.0625,0,0.1055,no
0.1055,0.074102,0.03125,0,0.1055,no
0.1055,0.074102,0,0,0.1055,no
0.1055,0.074102,0.0625,0,0.1055,no
0.1055,0.074102,0.03125,0,0.1055,no
0.1055,0.074102,0,0,0.1055,no
0.1055,0.074102,0.0625,0,0.1055,no
0.1055,0.074102,0.03125,0,0.1055,no
0.1055,0.074102,0,0,0.1055,no
0.1055,0.074102,0.125,0,0.1055,no
0.1055,0.074102,0.125,0,0.1055,no
0.1055,0.074102,0.15625,0.333333,0.1055,no
0.1055,0.074102,0,0,0.1055,no
0.1055,0.074102,0,0,0.1055,no
0.1055,0.074102,0,0,0.1055,no
0.1055,0.074102,0,0,0.1055,no
0.1055,0.074102,0,0,0.1055,no
0.1055,0.074102,0,0,0.1055,no
0.1055,0.074102,0,0,0.1055,no
0.1055,0.074102,0.03125,0,0.1055,no
0.1055,0.074102,0.03125,0,0.1055,no
0.1055,0.074102,0,0,0.1055,no
0.1055,0.074102,0,0,0.1055,no
0.1055,0.074102,0,0,0.1055,no
0.1055,0.074102,0,0,0.1055,no
0.1055,0.074102,0,0,0.1055,no
0.1055,0.074102,0,0,0.1055,no
0.1055,0.074102,0,0,0.1055,no
0.1055,0.074102,0,0,0.1055,no
0.1055,0.074102,0,0,0.1055,no
0.1055,0.074102,0,0,0.1055,no
0.1055,0.074102,0,0,0.1055,no
0.1055,0.074102,0.03125,0,0.1055,no
0.1055,0.074102,0,0,0.1055,no
0.1055,0.074102,0,0,0.1055,no
0.1055,0.074102,0,0,0.1055,no
0.1055,0.074102,0,0,0.1055,no
0.1055,0.074102,0,0,0.1055,no
0.1055,0.074102,0.03125,0,0.1055,no
0.1055,0.074102,0.03125,0,0.1055,no
0.1055,0.074102,0.125,0.333333,0.1055,no
0.1055,0.074102,0.03125,0,0.1055,no
0.1055,0.074102,0.15625,0,0.1055,no
0.1055,0.074102,0.09375,0,0.1055,no
0.1055,0.074102,0.25,0.333333,0.1055,no
0.1055,0.074102,0,0,0.1055,no
0.1055,0.074102,0.03125,0,0.1055,no
0.1055,0.074102,0.03125,0,0.1055,no
0.1055,0.074102,0,0,0.1055,no
0.1055,0.074102,0,0,0.1055,no
0.1055,0.074102,0,0,0.1055,no
0.1055,0.074102,0.03125,0,0.1055,no
0.1055,0.074102,0.03125,0,0.1055,no
0.1055,0.074102,0,0,0.1055,no
0.1055,0.074102,0,0,0.1055,no
0.1055,0.074102,0,0,0.1055,no
0.1055,0.074102,0.03125,0,0.1055,no
0.1055,0.074102,0.03125,0,0.1055,no
0.1055,0.074102,0,0,0.1055,no
0,0,0,0,0,no
0,0,0,0,0,no
0.000775,0.000544,0.03125,0,0.000775,no
0,0,0.03125,0,0,no
0,0,0,0,0,no
0,0,0,0,0,no
0.058095,0.040805,0,0,0.058095,no
0.058095,0.040805,0,0,0.058095,no
0.058095,0.040805,0,0,0.058095,no
0.058095,0.040805,0,0,0.058095,no
0.058095,0.040805,0,0,0.058095,no
0.058095,0.040805,0,0,0.058095,no
0.058095,0.040805,0,0,0.058095,no
0.029667,0.041676,0,0,0.058095,no
0.020914,0.042873,0,0,0.058095,no
0.030751,0.042002,0.0625,0,0.058095,no
0.029202,0.040914,0.03125,0,0.058095,no
0.058095,0.040805,0,0,0.058095,no
0.058095,0.040805,0.03125,0,0.058095,no
0.058095,0.040805,0.03125,0,0.058095,no
0.058095,0.040805,0.0625,0,0.058095,no
0.058095,0.040805,0,0,0.058095,no
0.058095,0.040805,0,0,0.058095,no
0.058095,0.040805,0,0,0.058095,no
0.058095,0.040805,0,0,0.058095,no
0.058095,0.040805,0,0,0.058095,no
0.058095,0.040805,0,0,0.058095,no
0.058095,0.040805,0,0,0.058095,no
0.058095,0.040805,0.03125,0,0.058095,no
0.058095,0.040805,0.03125,0,0.058095,no
0.058095,0.040805,0,0,0.058095,no
0.058095,0.040805,0,0,0.058095,no
0.058095,0.040805,0,0,0.058095,no
0.058095,0.040805,0,0,0.058095,no
0.058095,0.040805,0,0,0.058095,no
0.058095,0.040805,0,0,0.058095,no
0.058095,0.040805,0,0,0.058095,no
0.058095,0.040805,0,0,0.058095,no
0.058095,0.040805,0,0,0.058095,no
0.058095,0.040805,0,0,0.058095,no
0.058095,0.040805,0,0,0.058095,no
0.058095,0.040805,0.03125,0,0.058095,no
0.058095,0.040805,0,0,0.058095,no
0.058095,0.040805,0,0,0.058095,no
0.058095,0.040805,0,0,0.058095,no
0.058095,0.040805,0,0,0.058095,no
0.058095,0.040805,0,0,0.058095,no
0.058095,0.040805,0.03125,0,0.058095,no
0.058095,0.040805,0.03125,0,0.058095,no
0.058095,0.040805,0.03125,0,0.058095,no
0.058095,0.040805,0.03125,0,0.058095,no
0.058095,0.040805,0.0625,0,0.058095,no
0.058095,0.040805,0,0,0.058095,no
0.058095,0.040805,0.15625,0.333333,0.058095,no
0.058095,0.040805,0,0,0.058095,no
0.058095,0.040805,0.03125,0,0.058095,no
0.058095,0.040805,0.03125,0,0.058095,no
0.058095,0.040805,0,0,0.058095,no
0.058095,0.040805,0,0,0.058095,no
0.058095,0.040805,0,0,0.058095,no
0.058095,0.040805,0,0,0.058095,no
0.058095,0.040805,0,0,0.058095,no
0.058095,0.040805,0,0,0.058095,no
0.058095,0.040805,0,0,0.058095,no
0.058095,0.040805,0,0,0.058095,no
0.029435,0.041349,0,0,0.058095,no
0.058095,0.040805,0,0,0.058095,no
0.058095,0.040805,0,0,0.058095,no
0.058095,0.040805,0.0625,0,0.058095,no
0.02928,0.041023,0.03125,0,0.058095,no
0.058095,0.040805,0,0,0.058095,no
0.058095,0.040805,0.03125,0,0.058095,no
0.058095,0.040805,0.03125,0,0.058095,no
0.058095,0.040805,0.0625,0,0.058095,no
0.029667,0.041676,0,0,0.058095,no
0.029667,0.041676,0,0,0.058095,no
0.058095,0.040805,0,0,0.058095,no
0.058095,0.040805,0,0,0.058095,no
0.058095,0.040805,0,0,0.058095,no
0.058095,0.040805,0,0,0.058095,no
0.058095,0.040805,0,0,0.058095,no
0.058095,0.040805,0.03125,0,0.058095,no
0.058095,0.040805,0.03125,0,0.058095,no
0.058095,0.040805,0,0,0.058095,no
0.058095,0.040805,0,0,0.058095,no
0.058095,0.040805,0,0,0.058095,no
0.058095,0.040805,0,0,0.058095,no
0.058095,0.040805,0,0,0.058095,no
0.058095,0.040805,0,0,0.058095,no
0.058095,0.040805,0,0,0.058095,no
0.058095,0.040805,0,0,0.058095,no
0.058095,0.040805,0,0,0.058095,no
0.058095,0.040805,0,0,0.058095,no
0.058095,0.040805,0,0,0.058095,no
0.058095,0.040805,0.03125,0,0.058095,no
0.058095,0.040805,0,0,0.058095,no
0.058095,0.040805,0,0,0.058095,no
0.058095,0.040805,0,0,0.058095,no
0.058095,0.040805,0,0,0.058095,no
0.058095,0.040805,0,0,0.058095,no
0.058095,0.040805,0.03125,0,0.058095,no
0.058095,0.040805,0.03125,0,0.058095,no
0.058095,0.040805,0.03125,0,0.058095,no
0.058095,0.040805,0.03125,0,0.058095,no
0.058095,0.040805,0.0625,0,0.058095,no
0.058095,0.040805,0,0,0.058095,no
0.058095,0.040805,0.15625,0.333333,0.058095,no
0.058095,0.040805,0,0,0.058095,no
0.058095,0.040805,0.03125,0,0.058095,no
0.058095,0.040805,0.03125,0,0.058095,no
0.058095,0.040805,0,0,0.058095,no
0.058095,0.040805,0,0,0.058095,no
0,0,0,0,0,no
0.001239,0.000871,0,0.333333,0.001239,no
0,0,0,0,0,no
0.00031,0.000109,0,0,0.00031,no
0,0,0,0,0,no
0,0,0,0,0,no
0,0,0,0,0,no
0.003253,0.002285,0,0,0.003253,no
0.001936,0.002503,0,0,0.003253,no
0.000542,0.000653,0.15625,0.333333,0.000775,no
0,0,0.0625,0,0,no
0,0,0.0625,0,0,no
0,0,0.5,0.666667,0,yes
0.00031,0.000109,0,0,0.00031,no
0,0,0,0,0,no
0.00062,0.000653,0.0625,0,0.00093,no
0.00093,0.000653,0.03125,0,0.00093,no
0.001084,0.000762,0,0,0.001084,no
0.00031,0.000109,0.03125,0,0.00031,no
0,0,0.03125,0,0,no
0,0,0.03125,0,0,no
0.00062,0.000109,0.21875,0.333333,0.00062,no
0,0,0.0625,0,0,no
0.000697,0.000435,0.125,0,0.000775,no
0.000775,0.000653,0.0625,0,0.00093,no
0,0,0,0,0,no
0,0,0,0,0,no
0,0,0,0,0,no
0,0,0,0,0,no
0,0,0.03125,0,0,no
0,0,0,0,0,no
0.001084,0.001415,0,0,0.001239,no
0.001239,0.000762,0,0.333333,0.001239,no
0.001084,0.00272,0.09375,0.333333,0.001239,yes
0,0,0.0625,0,0,yes
0.003032,0.007726,0.1875,0.333333,0.002324,yes
0.002892,0.008705,0.09375,0.666667,0.006197,yes
0,0,0.0625,0,0,yes
0.002851,0.007617,0.0625,0.666667,0.006197,yes
0,0,0.0625,0,0,yes
0.000465,0.000653,0.09375,0.333333,0.000465,yes
0,0,0.0625,0,0,yes
0.001549,0.001088,0,0,0.001549,no
0.00062,0.000435,0,0,0.00062,yes
0.00093,0.001088,0.125,0,0.00093,no
0.000465,0.000871,0.03125,0,0.00062,yes
0.000723,0.001088,0.09375,0,0.000775,yes
0.00031,0.000435,0.0625,0.333333,0.000465,yes
0.000723,0.001088,0.09375,0,0.000775,yes
0.000542,0.000544,0,0,0.00062,no
0.000387,0.000326,0.03125,0,0.000465,yes
0.001332,0.003591,0.0625,0,0.001859,yes
0.000516,0.000653,0.15625,0.333333,0.00031,yes
0.000891,0.001741,0.15625,0.333333,0.000775,no
0.000723,0.001088,0.09375,0,0.000775,yes
0.000361,0.000653,0.25,0.333333,0.000465,no
0.001394,0.000762,0.21875,0.333333,0.001084,no
0.000155,0.000109,0,0,0.000155,no
0,0,0,0,0,no
0.000465,0.000544,0,0,0.00062,no
0,0,0,0,0,no
0,0,0.03125,0,0,no
0,0,0,0,0,no
0,0,0,0,0,yes
0,0,0,0,0,no
0,0,0.03125,0,0,no
0,0,0.03125,0,0,no
0,0,0,0,0,no
0,0,0,0,0,no
0,0,0,0,0,no
0,0,0,0,0,no
0,0,0,0,0,no
0,0,0.03125,0,0,no
0,0,0.03125,0,0,no
0,0,0,0,0,no
0,0,0.03125,0,0,no
0,0,0.03125,0,0,no
0,0,0,0,0,no
0,0,0,0,0,no
0,0,0,0,0,no
0,0,0.03125,0,0,no
0,0,0,0,0,no
0.00031,0.000109,0.0625,0,0.00031,no
0,0,0,0,0,no
0,0,0,0,0,no
0,0,0,0,0,no
0,0,0,0,0,no
0,0,0,0,0,no
0.00093,0.000326,0,0,0.00062,no
0,0,0,0,0,no
0.007075,0.009684,0.125,0.333333,0.010999,no
0.006352,0.008814,0.03125,0,0.010999,no
0.005655,0.007835,0,0,0.010999,yes
0.006197,0.008596,0.1875,0.333333,0.010999,yes
0.006197,0.008596,0.15625,0.333333,0.010999,yes
0.008288,0.011534,0.375,0.666667,0.010999,no
0.005577,0.003917,0.21875,0.333333,0.005577,yes
0,0,0.09375,0,0,yes
0,0,0.03125,0,0,no
0.001239,0.000544,0,0,0.001239,no
0.002634,0.000871,0.03125,0,0.001394,no
0.000775,0.000435,0,0,0.000775,no
0.00031,0.000109,0,0,0.00031,yes
0,0,0.0625,0.333333,0,yes
0.021998,0.015452,0,0,0.021998,no
0.021998,0.015452,0.28125,0.333333,0.021998,yes
0.021998,0.015452,0.28125,0.333333,0.021998,no
0.021998,0.015452,0.21875,0.333333,0.021998,no
0.021998,0.015452,0,0,0.021998,no
0,0,0.0625,0,0,no
0,0,0.0625,0,0,no
0,0,0,0,0,no
0.005267,0.000871,0,0,0.008056,no
0.008056,0.000435,0,0,0.008056,no
0,0,0.03125,0,0,no
0.000775,0.000435,0,0,0.000775,no
0.000775,0.000435,0.1875,0.333333,0.000775,no
0.002169,0.000653,0.0625,0,0.002169,no
0.014562,0.010229,0,0,0.014562,no
0.014562,0.010229,0.125,0,0.014562,no
0.014562,0.010229,0.125,0,0.014562,yes
0.014562,0.010229,0.1875,0.333333,0.014562,yes
0.014562,0.010229,0.1875,0.333333,0.014562,yes
0.003253,0.000871,0.0625,0,0.001704,no
0.00031,0.000109,0.03125,0,0.00031,no
0,0,0.0625,0,0,no
0,0,0,0,0,no
0.00093,0.000653,0.03125,0.333333,0.00062,no
0.00031,0.000218,0.03125,0,0.00031,no
0.000232,0.000218,0,0,0.00031,no
0,0,0,0,0,no
0,0,0,0,0,no
0.000852,0.000871,0.09375,0.333333,0.000465,yes
0,0,0,0,0,no
0.000775,0.000544,0,0,0.000775,no
0,0,0,0,0,no
0.00031,0.000109,0.09375,0,0.00031,no
0,0,0,0,0,no
0,0,0.0625,0,0,no
0,0,0.15625,0.333333,0,no
0,0,0.0625,0.333333,0,no
0,0,0,0,0,no
0,0,0,0,0,no
0.001239,0.000326,0.09375,0.333333,0.001239,no
0.001239,0.000326,0.03125,0.333333,0.001239,no
0.001239,0.000326,0.03125,0,0.001239,no
0,0,0,0,0,no
0,0,0.0625,0,0,no
0,0,0,0,0,no
0,0,0,0,0,no
0,0,0,0,0,no
0,0,0,0,0,no
0.00031,0.000109,0,0,0.00031,no
0.00031,0.000109,0,0,0.00031,no
0.00031,0.000109,0,0,0.00031,no
0.00031,0.000109,0,0,0.00031,no
0.001704,0.001197,0,0,0.001704,no
0.000542,0.000544,0,0,0.000465,no
0,0,0,0,0,no
0.007591,0.000109,0.125,0.333333,0.007591,yes
0.007126,0.007508,0.28125,0.333333,0.006197,no
0.010225,0.007182,0,0,0.010225,no
0.010225,0.007182,0.21875,0.333333,0.010225,yes
0.010225,0.007182,0.21875,0.333333,0.010225,yes
0.001123,0.002285,0.15625,0.333333,0.001549,yes
0.001084,0.000762,0,0,0.001084,no
0,0,0.03125,0,0,no
0,0,0,0,0,no
0,0,0,0,0,no
0,0,0,0,0,no
0,0,0,0,0,no
0,0,0,0,0,no
0,0,0.125,0.333333,0,no
0,0,0.0625,0,0,no
0,0,0.0625,0,0,no
0,0,0.0625,0,0,no
0,0,0,0,0,no
0,0,0,0,0,no
0,0,0,0,0,no
0,0,0.09375,0,0,no
0,0,0.0625,0,0,no
0,0,0.09375,0,0,no
0,0,0.03125,0,0,no
0.00031,0.000109,0,0,0.00031,no
0.000878,0.000979,0.125,0.333333,0.000465,no
0,0,0,0,0,no
0,0,0,0,0,no
0,0,0,0,0,no
0,0,0.0625,0,0,no
0.00031,0.000109,0.09375,0,0.00031,no
0,0,0.125,0,0,no
0.00031,0.000109,0,0,0.00031,no
0.00031,0.000109,0,0,0.00031,no
0,0,0.03125,0,0,no
0,0,0,0,0,no
0,0,0,0,0,no
0,0,0,0,0,no
0,0,0.03125,0,0,no
0,0,0,0,0,no
0,0,0.09375,0.333333,0,no
0,0,0,0,0,no
0,0,0,0,0,no
0,0,0,0,0,no
0,0,0,0,0,no
0,0,0,0,0,no
0,0,0,0,0,no
0,0,0,0,0,no
0,0,0,0,0,no
0,0,0,0,0,no
0,0,0,0,0,no
0,0,0,0,0,no
0,0,0,0,0,no
0,0,0,0,0,no
0,0,0,0,0,no
0,0,0,0,0,no
0,0,0,0,0,no
0,0,0,0,0,no
0,0,0,0,0,no
0,0,0.1875,0.333333,0,no
0,0,0,0,0,no
0,0,0.3125,0.666667,0,no
0,0,0.25,0.333333,0,no
0,0,0.0625,0.333333,0,no
0,0,0,0,0,no
0,0,0,0,0,no
0,0,0.125,0.333333,0,no
0,0,0.09375,0,0,no
0.005112,0.003591,0.15625,0.333333,0.005112,no
0.003176,0.003808,0,0,0.005112,no
0.003331,0.003917,0,0,0.005112,no
0.004214,0.005876,0.0625,0.333333,0.006352,no
0.003304,0.007182,0.0625,0,0.004957,no
0.002922,0.007835,0.0625,0.333333,0.004957,no
0.001859,0.003373,0.125,0.333333,0.002014,no
0.004183,0.002612,0,0,0.004183,no
0.004183,0.002612,0.03125,0,0.004183,no
0.0016,0.002829,0.0625,0,0.004183,no
0.00031,0.000109,0.1875,0.333333,0.00031,no
0,0,0,0,0,no
0.00031,0.000109,0.0625,0,0.00031,no
0.001239,0.000435,0.03125,0,0.00062,no
0.001859,0.001306,0,0,0.001859,no
0,0,0.0625,0,0,no
0,0,0.03125,0,0,no
0.00031,0.000109,0.03125,0,0.00031,no
0,0,0,0,0,no
0,0,0,0,0,no
0,0,0.03125,0,0,no
0.003021,0.004244,0.03125,0,0.004802,no
0.004802,0.003373,0,0,0.004802,no
0.004802,0.003373,0,0,0.004802,yes
0,0,0,0,0,yes
0,0,0,0,0,no
0,0,0.0625,0,0,no
0,0,0.09375,0.333333,0,no
0,0,0.0625,0,0,no
0.003563,0.002503,0.0625,0,0.003563,no
0.00062,0.000435,0.03125,0,0.00031,no
0.00031,0.000109,0,0,0.00031,no
0,0,0,0,0,no
0,0,0.03125,0.333333,0,no
0,0,0,0,0,no
0,0,0,0,0,no
0,0,0,0,0,no
0,0,0,0,0,no
0,0,0.03125,0,0,no
0,0,0.0625,0,0,no
0.00062,0.000218,0,0,0.00062,no
0,0,0,0,0,no
0.00883,0.006202,0,0,0.00883,no
0.00883,0.006202,0.03125,0,0.00883,no
0.00883,0.006202,0.03125,0,0.00883,no
0,0,0,0,0,no
0,0,0,0,0,no
0,0,0.0625,0.666667,0,no
0,0,0.03125,0,0,no
0,0,0.03125,0,0,no
0.008107,0.017084,0.09375,0.333333,0.013168,no
0.009527,0.013384,0.03125,0,0.013168,no
0.009218,0.012949,0.0625,0.333333,0.013168,no
0.009218,0.012949,0.0625,0.333333,0.013168,no
0.009218,0.012949,0.03125,0,0.013168,no
0,0,0.0625,0,0,no
0,0,0.0625,0.333333,0,no
0.004957,0.003373,0.0625,0,0.004957,no
0.004957,0.003373,0.03125,0,0.004957,no
0,0,0,0,0,no
0,0,0,0,0,no
0,0,0,0,0,no
0,0,0,0,0,no
0,0,0,0,0,no
0,0,0,0,0,no
0,0,0,0,0,no
0,0,0.125,0.333333,0,no
0,0,0.03125,0,0,no
0,0,0,0,0,no
0,0,0,0,0,no
0,0,0,0,0,no
0,0,0,0,0,no
0,0,0,0,0,no
0,0,0,0,0,no
0,0,0,0,0,no
0,0,0,0,0,no
0,0,0,0,0,no
0.00031,0.000109,0,0.333333,0.00031,no
0.000465,0.000218,0,0,0.000465,no
0,0,0,0,0,no
0.003408,0.002394,0,0,0.003408,no
0.000155,0.000109,0,0,0.000155,no
0.002789,0.005767,0,0.333333,0.007126,no
0.003873,0.008052,0,0,0.007126,no
0,0,0,0.333333,0,no
0,0,0,0,0,no
0,0,0,0,0,no
0.00031,0.000109,0,0,0.00031,no
0,0,0,0,0,no
0,0,0,0,0,no
0.003873,0.00272,0,0,0.003873,no
0,0,0,0,0,no
0,0,0,0,0,no
0,0,0,0,0,no
0.002634,0.00185,0,0,0.002634,no
0,0,0,0,0,no
0,0,0,0,0,no
0,0,0,0.333333,0,no
0.00031,0.000435,0.0625,0.333333,0.00031,no
0.00031,0.000109,0,0.333333,0.00031,no
0,0,0.03125,0,0,no
0.000569,0.000653,0.1875,0.333333,0.00062,no
0.00031,0.000109,0,0.333333,0.00031,no
0,0,0,0,0,no
0.000658,0.000979,0.125,0.333333,0.000775,no
0.000697,0.000435,0.0625,0.666667,0.000775,no
0,0,0.0625,0,0,no
0.000414,0.000544,0.09375,0.333333,0.00031,no
0.00031,0.000109,0,0,0.00031,no
0,0,0.03125,0,0,no
0.001549,0.000979,0.03125,0,0.001549,no
0,0,0.03125,0,0,no
0.00031,0.000109,0.0625,0,0.00031,no
0,0,0,0,0,no
0.001859,0.001088,0.15625,0.333333,0.001549,no
0.001549,0.000979,0.09375,0,0.001549,no
0.001549,0.000979,0.03125,0,0.001549,no
0.00031,0.000109,0.125,0,0.00031,no
0,0,0,0,0,no
0.00031,0.000109,0,0,0.00031,no
0.00031,0.000109,0,0,0.00031,no
0,0,0,0,0,no
0,0,0,0,0,no
0.00031,0.000109,0.0625,0.333333,0.00031,no
0.000465,0.000218,0,0,0.00031,no
0,0,0,0,0,no
0.002014,0.001415,0.09375,0.333333,0.001859,no
0.006816,0.003808,0.03125,0.333333,0.004802,no
0.001704,0.001197,0,0,0.001704,no
0.001704,0.001197,0,0,0.001704,no
0,0,0.03125,0,0,no
0,0,0.03125,0,0,no
0,0,0,0,0,no
0,0,0,0,0,no
0,0,0,0,0,no
0,0,0,0,0,no
0,0,0,0,0,no
0,0,0,0,0,no
0,0,0,0,0,no
0,0,0,0,0,no
0,0,0,0,0,no
0,0,0,0,0,no
0.001239,0.002394,0,0,0.001859,no
0,0,0,0,0,no
0,0,0.03125,0,0,no
0.000775,0.000218,0,0,0.000775,no
0.001859,0.000653,0.0625,0,0.001859,no
0.001472,0.00185,0,0.333333,0.002169,no
0.002169,0.001523,0,0,0.002169,no
0.001239,0.001632,0,0,0.002169,no
0.002169,0.001523,0,0,0.002169,no
0.001704,0.001197,0,0,0.001704,no
0.001239,0.001523,0,0,0.001704,no
0.001704,0.001197,0,0,0.001704,no
0,0,0.09375,0,0,no
0,0,0.3125,0.666667,0,no
0,0,0,0,0,no
0,0,0.0625,0,0,no
0,0,0,0,0,no
0,0,0.0625,0,0,no
0,0,0,0,0,no
0,0,0,0,0,no
0,0,0,0,0,no
0,0,0,0,0,no
0,0,0,0,0,no
0,0,0,0,0,no
0,0,0,0,0,no
0,0,0,0,0,no
0,0,0,0,0,no
0,0,0,0,0,no
0,0,0,0,0,no
0,0,0,0,0,no
0,0,0,0,0,no
0,0,0,0,0,no
0,0,0,0,0,no
0,0,0,0,0,no
0,0,0.25,0.333333,0,no
0,0,0,0,0,no
0,0,0.15625,0.333333,0,no
0.001084,0.000544,0,0,0.001084,no
0.00031,0.000109,0,0,0.00031,no
0.001642,0.003373,0.03125,0,0.002789,no
0.001898,0.003156,0.03125,0,0.003253,no
0.002014,0.002067,0,0,0.002479,no
0,0,0,0,0,no
0.000465,0.000326,0,0,0.000465,no
0.000465,0.000109,0,0,0.000465,no
0,0,0,0,0,no
0,0,0,0,0,no
0.00062,0.000435,0,0,0.00062,no
0.001084,0.000326,0,0,0.001084,no
0.001084,0.001523,0.15625,0.333333,0.001239,no
0.001239,0.000871,0,0,0.001239,no
0,0,0,0,0,no
0.002169,0.001523,0,0,0.002169,no
0,0,0,0,0,no
0.006971,0.0037,0,0,0.009295,no
0.004996,0.010446,0,0,0.009295,no
0.002827,0.007291,0,0,0.007901,no
0.004105,0.005332,0,0,0.007901,no
0.007901,0.005223,0,0,0.007901,no
0.003021,0.002285,0,0,0.004802,no
0,0,0,0,0,no
0.001084,0.000326,0,0,0.001084,no
0.001627,0.002285,0.15625,0.333333,0.001084,no
0,0,0,0,0,no
0,0,0.0625,0,0,no
0.006816,0.004788,0.1875,0.333333,0.006816,no
0,0,0,0,0,no
0,0,0,0,0,no
0,0,0,0,0,no
0,0,0,0,0,no
0,0,0.03125,0,0,no
0,0,0,0,0,no
0,0,0,0,0,no
0,0,0,0,0,no
0,0,0,0,0,no
0,0,0,0,0,no
0,0,0.0625,0.333333,0,no
0,0,0,0,0,no
0,0,0,0,0,no
0,0,0,0,0,no
0,0,0,0,0,no
0,0,0,0,0,no
0,0,0,0,0,no
0,0,0,0,0,no
0,0,0,0,0,no
0,0,0,0,0,no
0,0,0,0,0,no
0,0,0,0,0,no
0,0,0,0,0,no
0,0,0,0,0,no
0,0,0,0,0,no
0,0,0,0,0,no
0,0,0,0,0,no
0,0,0,0,0,no
0.00062,0.000435,0,0,0.00062,no
0.00062,0.000435,0,0,0.00062,no
0.000465,0.000218,0,0,0.000465,no
0.000542,0.001088,0.03125,0,0.001084,no
0.00062,0.000435,0,0,0.00062,no
0,0,0,0,0,no
0,0,0,0,0,no
0,0,0,0,0,no
0,0,0,0,0,no
0.001239,0.000218,0.03125,0,0.001239,no
0.000465,0.000109,0,0,0.000465,no
0.001084,0.001959,0.28125,0.333333,0.00093,no
0.000775,0.000326,0,0,0.000465,no
0.000775,0.000871,0,0,0.00062,no
0.00457,0.002394,0.03125,0,0.006352,no
0.007746,0.000871,0,0,0.014253,no
0.001239,0.00185,0.03125,0,0.001394,no
0.00031,0.000218,0,0,0.00031,no
0.00031,0.000109,0,0,0.00031,no
0.000387,0.000326,0,0,0.000465,no
0.000878,0.000871,0,0,0.001549,no
0.001445,0.004461,0.3125,0.666667,0.002479,no
0.001952,0.002938,0.125,0.666667,0.005267,no
0,0,0,0,0,no
0.00093,0.000871,0,0,0.001394,no
0.001046,0.001959,0.0625,0,0.001394,no
0.00031,0.000109,0,0.333333,0.00031,no
0.000387,0.000326,0,0.333333,0.000465,no
0.000878,0.001306,0.03125,0.333333,0.001239,no
0.00031,0.000218,0,0,0.00031,no
0.000465,0.000544,0.0625,0.333333,0.000465,no
0.001084,0.000435,0,0,0.00062,no
0.000465,0.000218,0,0.333333,0.000465,no
0.000775,0.000871,0.03125,0.666667,0.00062,no
0.00031,0.000109,0,0,0.00031,no
0.000465,0.000218,0,0,0.000465,no
0.001084,0.000762,0.03125,0,0.001084,no
0.014098,0.001306,0.03125,0,0.025562,no
0.00093,0.000544,0,0,0.00093,no
0,0,0,0,0,no
0.001332,0.004244,0,0,0.003873,no
0.001136,0.004135,0.03125,0,0.003873,no
0.008005,0.0037,0,0,0.017351,no
0.003873,0.00272,0.09375,0,0.003873,no
0.00031,0.000218,0,0,0.00031,no
0.004376,0.002285,0.03125,0,0.007901,no
0,0,0,0,0,no
0.000775,0.000544,0.1875,0.333333,0.000775,no
0,0,0,0,0,no
0,0,0.03125,0,0,no
0,0,0,0,0,no
0.001549,0.001088,0,0,0.001549,no
0,0,0,0,0,no
0.000852,0.000871,0.125,0.333333,0.00093,no
0,0,0,0,0,no
0,0,0,0,0,no
0,0,0,0,0,no
0,0,0,0,0,no
0,0,0,0,0,no
0,0,0,0,0,no
0,0,0,0,0,no
0,0,0.03125,0.333333,0,no
0,0,0,0,0,no
0,0,0,0,0,no
0,0,0,0,0,no
0,0,0,0,0,no
0,0,0,0,0,no
0,0,0,0,0,no
0,0,0.03125,0,0,no
0,0,0.03125,0.333333,0,no
0,0,0,0,0,no
0,0,0.0625,0,0,no
0,0,0.125,0.333333,0,no
0,0,0.03125,0,0,no
0,0,0,0,0,no
0,0,0,0,0,no
0,0,0,0,0,no
0,0,0,0,0,no
0,0,0,0,0,no
0,0,0.0625,0,0,no
0,0,0.09375,0.333333,0,no
0,0,0,0,0,no
0,0,0,0,0,no
0,0,0,0,0,no
0,0,0,0,0,no
0,0,0,0,0,no
0,0,0.03125,0.333333,0,no
0,0,0.03125,0,0,no
0,0,0.1875,0.333333,0,no
0,0,0.03125,0,0,no
0,0,0.125,0.333333,0,no
0,0,0,0,0,no
0,0,0.0625,0,0,no
0.000465,0.000326,0,0,0.000465,no
0,0,0,0,0,no
0,0,0,0,0,no
0,0,0,0,0,no
0,0,0.03125,0.333333,0,no
0,0,0,0,0,no
0,0,0,0,0,no
0,0,0,0,0,no
0,0,0,0,0,no
0.00062,0.000218,0,0.333333,0.00062,no
0.002866,0.001959,0.375,0.666667,0.002324,no
0.002634,0.001632,0,0,0.002634,no
0.002634,0.001632,0,0,0.002634,no
0.002634,0.001632,0.03125,0,0.002634,no
0,0,0.0625,0,0,no
0,0,0.03125,0,0,no
0,0,0.0625,0,0,no
0,0,0.0625,0,0,no
0,0,0.09375,0,0,no
0,0,0.0625,0,0,no
0,0,0.0625,0,0,no
0,0,0,0,0,no
0,0,0.03125,0,0,no
0,0,0,0,0,no
0,0,0,0,0,no
0,0,0,0,0,no
0,0,0,0,0,no
0,0,0.03125,0,0,no
0.00062,0.000326,0,0.333333,0.000465,no
0,0,0,0,0,no
0,0,0,0,0,no
0,0,0.25,0.333333,0,no
0,0,0,0,0,no
0,0,0.0625,0.333333,0,no
0,0,0.0625,0,0,no
0,0,0,0,0,no
0,0,0.0625,0,0,no
0,0,0.0625,0.333333,0,no
0,0,0.03125,0,0,no
0,0,0.09375,0.333333,0,no
0.000155,0.000109,0.09375,0.333333,0.000155,yes
0,0,0,0,0,no
0,0,0,0,0,no
0,0,0,0,0,no
0,0,0.03125,0,0,no
0,0,0,0,0,no
0,0,0,0,0,no
0,0,0.09375,0.333333,0,no
0,0,0.0625,0.333333,0,no
0,0,0,0,0,no
0,0,0,0,0,no
0,0,0,0,0,no
0,0,0,0,0,no
0.003253,0.002285,0.28125,0.333333,0.003253,no
0,0,0,0,0,no
0,0,0.03125,0,0,no
0,0,0.09375,0.333333,0,no
0,0,0.03125,0,0,no
0,0,0,0,0,no
0,0,0,0,0,no
0,0,0,0,0,no
0,0,0,0,0,no
0,0,0,0,0,no
0,0,0.125,0.333333,0,no
0,0,0,0,0,no
0,0,0,0,0,no
0,0,0.0625,0.333333,0,no
0,0,0.0625,0.333333,0,no
0,0,0.03125,0,0,no
0,0,0,0,0,no
0,0,0.09375,0.333333,0,no
0,0,0.0625,0.333333,0,no
0,0,0,0,0,no
0,0,0.125,0.333333,0,no
0,0,0,0,0,no
0,0,0,0,0,no
0,0,0.0625,0,0,no
0,0,0,0,0,no
0,0,0,0,0,no
0,0,0,0,0,no
0,0,0.09375,0,0,no
0.00093,0.000653,0.0625,0,0.00093,no
0,0,0.03125,0,0,no
0,0,0,0,0,no
0,0,0.1875,0.333333,0,no
0.000155,0.000109,0,0,0.000155,no
0,0,0,0,0,no
0,0,0,0,0,no
0,0,0,0,0,no
0,0,0,0,0,no
0,0,0,0,0,no
0,0,0.03125,0,0,no
0,0,0.0625,0,0,no
0,0,0.125,0.333333,0,no
0,0,0.09375,0,0,no
0.000155,0.000109,0,0,0.000155,no
0,0,0,0,0,no
0,0,0.15625,0.333333,0,no
0,0,0.03125,0,0,no
0,0,0.03125,0,0,no
0,0,0.0625,0,0,no
0,0,0,0,0,no
0.002324,0.001632,0.03125,0,0.002324,no
0.002324,0.001632,0,0,0.002324,no
0,0,0,0,0,no
0.012858,0.000218,0.0625,0,0.012548,no
0.011464,0.002503,0.0625,0.333333,0.018435,no
0.000155,0.000109,0.03125,0.333333,0.000155,no
0.000155,0.000109,0,0,0.000155,no
0,0,0,0,0,no
0,0,0,0,0,no
0,0,0,0,0,no
0,0,0,0,0,no
0.004028,0.005332,0.0625,0.333333,0.006197,no
0.006197,0.004353,0,0,0.006197,no
0.004028,0.005332,0.03125,0,0.006197,no
0.006197,0.004353,0,0,0.006197,no
0,0,0,0,0,no
0,0,0,0,0,no
0,0,0.03125,0,0,no
0,0,0,0,0,no
0.000155,0.000109,0.09375,0,0.000155,no
0,0,0.03125,0,0,no
0,0,0.09375,0.333333,0,no
0,0,0,0,0,no
0,0,0,0,0,no
0,0,0.15625,0.333333,0,no
0,0,0.03125,0,0,no
0,0,0.125,0.333333,0,no
0,0,0.03125,0,0,no
0,0,0.0625,0,0,no
0,0,0,0,0,no
0.008985,0.011643,0,0.333333,0.017196,no
0.017196,0.011317,0.0625,0,0.017196,no
0.017196,0.011317,0.0625,0,0.017196,no
0.017196,0.011317,0.03125,0,0.017196,no
0.017196,0.011317,0.03125,0,0.017196,no
0.017196,0.011317,0.03125,0,0.017196,no
0.017196,0.011317,0.03125,0,0.017196,no
0.005422,0.003808,0,0,0.005422,no
0.003021,0.004026,0,0.333333,0.005422,no
0.005422,0.003808,0.03125,0,0.005422,no
0.005422,0.003808,0,0,0.005422,no
0.005422,0.003808,0.03125,0,0.005422,no
0.007591,0.004026,0.03125,0,0.005422,no
0.013323,0.000109,0.03125,0,0.013323,no
0.021069,0.000762,0.03125,0,0.014253,no
0.00785,0.004788,0.0625,0.333333,0.009915,no
0.004699,0.004244,0,0,0.008211,no
0,0,0,0,0,no
0,0,0,0,0,no
0.00031,0.000218,0,0,0.00031,no
0,0,0.03125,0,0,no
0,0,0,0,0,no
0,0,0,0,0,no
0,0,0,0,0,no
0,0,0,0,0,no
0.004183,0.001523,0,0.333333,0.001239,no
0.001239,0.000435,0,0,0.001239,no
0.001239,0.000435,0,0,0.001239,no
0.001084,0.000435,0,0,0.001084,no
0,0,0,0,0,no
0.001394,0.000979,0,0,0.001394,no
0,0,0,0,0,no
0.001394,0.000979,0,0,0.001394,no
0,0,0,0,0,no
0,0,0,0,0,no
0.00062,0.000218,0,0,0.00031,no
0.00031,0.000109,0.03125,0,0.00031,no
0.00093,0.000326,0,0,0.00093,no
0.00031,0.000109,0.03125,0,0.00031,no
0,0,0,0,0,no
0,0,0,0,0,no
0,0,0,0,0,no
0,0,0,0,0,no
0.00093,0.000326,0.15625,0.666667,0.00031,no
0,0,0.0625,0,0,no
0,0,0,0,0,no
0,0,0,0,0,no
0.00031,0.000109,0,0,0.00031,no
0.00062,0.000218,0,0,0.00062,no
0,0,0,0,0,no
0,0,0,0,0,no
0,0,0,0,0,no
0.000775,0.000544,0.0625,0,0.00062,no
0,0,0,0,0,no
0.00031,0.000109,0.03125,0,0.00031,no
0.00062,0.000218,0,0,0.00062,no
0,0,0,0,0,no
0,0,0,0,0,no
0,0,0,0,0,no
0,0,0.03125,0,0,no
0,0,0.03125,0,0,no
0,0,0.03125,0,0,no
0,0,0,0,0,no
0,0,0,0,0,no
0,0,0,0,0,no
0,0,0,0,0,no
0,0,0,0,0,no
0,0,0,0,0,no
0,0,0,0,0,no
0,0,0.0625,0,0,no
0,0,0,0,0,no
0,0,0,0,0,no
0,0,0.125,0.333333,0,no
0,0,0.03125,0,0,no
0,0,0,0,0,no
0,0,0.0625,0,0,no
0,0,0,0,0,no
0,0,0,0,0,no
0,0,0,0,0,no
0,0,0,0,0,no
0,0,0,0,0,no
0,0,0,0,0,no
0,0,0,0,0,no
0,0,0.03125,0,0,no
0.000775,0.000544,0,0,0.000775,no
0,0,0,0,0,no
0,0,0,0,0,no
0,0,0,0,0,no
0,0,0,0,0,no
0,0,0,0,0,no
0,0,0,0,0,no
0,0,0,0,0,no
0,0,0,0,0,no
0,0,0,0,0,no
0,0,0,0,0,no
0.00093,0.000326,0.03125,0,0.00062,no
0,0,0.09375,0,0,no
0,0,0,0,0,no
0,0,0,0,0,no
0,0,0,0,0,no
0,0,0,0,0,no
0.001394,0.000762,0,0,0.001394,no
0.001394,0.000762,0,0,0.001394,no
0.000775,0.002176,0.5625,0.666667,0.001859,no
0,0,0,0,0,no
0,0,0,0,0,no
0,0,0,0,0,no
0.00093,0.000653,0,0,0.00093,no
0,0,0,0,0,no
0,0,0,0,0,no
0,0,0,0,0,no
0.004648,0.003264,0,0,0.004648,no
0.004648,0.003264,0,0,0.004648,no
0.004648,0.003264,0,0,0.004648,no
0.002634,0.0037,0,0,0.004648,no
0.004648,0.003264,0,0,0.004648,no
0.004648,0.003264,0,0,0.004648,no
0,0,0,0,0,no
0.001859,0.001306,0,0,0.001859,no
0.001859,0.001306,0,0,0.001859,no
0,0,0,0,0,no
0.001549,0.001088,0,0,0.001549,no
0.001549,0.001088,0,0,0.001549,no
0,0,0,0,0,no
0,0,0,0,0,no
0.000465,0.000326,0,0,0.000465,no
0.00031,0.000109,0,0,0.00031,no
0.000155,0.000109,0,0,0.000155,no
0.002634,0.001088,0,0,0.002634,no
0.002634,0.001088,0,0,0.002634,no
0,0,0.0625,0,0,no
0.003098,0.002176,0,0,0.003098,no
0.003098,0.002176,0,0,0.003098,no
0,0,0,0,0,no
0.000775,0.000544,0.125,0,0.000775,no
0,0,0,0,0,no
0.000775,0.001088,0,0,0.001394,no
0.001317,0.001632,0,0,0.001394,no
0,0,0,0,0,no
0,0,0,0,0,no
0.001704,0.000762,0.03125,0,0.001704,no
0.516112,0.704897,0,0,1,no
0,0,0,0,0,no
0.000775,0.000544,0.125,0,0.000775,no
0,0,0,0,0,no
0.000775,0.001088,0,0,0.001394,no
0.001317,0.001632,0,0,0.001394,no
0,0,0,0,0,no
0,0,0,0,0,no
0.001704,0.000762,0.03125,0,0.001704,no
0.502091,0.704788,0,0,1,no
0,0,0,0,0,no
0.000775,0.000544,0.125,0,0.000775,no
0,0,0,0,0,no
0.000775,0.001088,0,0,0.001394,no
0.001317,0.001632,0,0,0.001394,no
0,0,0,0,0,no
0,0,0,0,0,no
0.001704,0.000762,0.03125,0,0.001704,no
0.25306,0.71012,0,0,1,no
0,0,0,0,0,no
0.000775,0.000544,0.125,0,0.000775,no
0,0,0,0,0,no
0.000775,0.001088,0,0,0.001394,no
0.001317,0.001632,0,0,0.001394,no
0,0,0,0,0,no
0,0,0,0,0,no
0.001704,0.000762,0.03125,0,0.001704,no
0.295043,0.826224,0,0,1,no
0.393029,0.825462,0,0,1,no
0.294926,0.82568,0,0,1,no
0.294926,0.82568,0,0,1,no
0.294926,0.82568,0,0,1,no
0.294926,0.82568,0,0,1,no
0.393029,0.825462,0,0,1,no
0.393029,0.825462,0,0,1,no
0.021998,0.007943,0,0,0.021998,no
0.00031,0.000109,0,0,0.00031,no
0,0,0,0,0,no
0,0,0,0,0,no
0.295043,0.826224,0,0,1,no
0.295043,0.826224,0,0,1,no
0.393029,0.825462,0,0,1,no
0.393029,0.825462,0,0,1,no
0.393029,0.825462,0,0,1,no
0.393029,0.825462,0,0,1,no
0.021998,0.007943,0,0,0.021998,no
0.00031,0.000109,0,0,0.00031,no
0,0,0,0,0,no
0,0,0,0,0,no
0.393029,0.825462,0,0,1,no
0.393029,0.825462,0.0625,0,1,no
0.393029,0.825462,0.03125,0,1,no
0.393029,0.825462,0,0,1,no
0.393029,0.825462,0,0,1,no
0,0,0,0,0,no
0,0,0.03125,0,0,no
0.008521,0.003047,0.03125,0,0.008211,no
0.008211,0.002938,0.0625,0,0.008211,no
0.304493,0.815887,0,0,1,no
0.00426,0.003047,0,0,0.008211,no
0,0,0,0,0,no
0,0,0,0,0,no
0,0,0,0,0,no
0,0,0,0,0,no
0,0,0,0,0,no
0,0,0.03125,0,0,no
0,0,0.03125,0,0,no
0,0,0,0,0,no
0,0,0,0,0,no
0,0,0,0,0,no
0,0,0,0,0,no
0.401704,0.810229,0,0,1,no
0.001239,0.000871,0,0,0.001239,no
0.431345,0.810555,0,0,1,no
0,0,0,0,0,no
0,0,0,0,0,no
0.00031,0.000109,0,0,0.00031,no
0.384869,0.809684,0,0,1,no
0.386936,0.813928,0.03125,0,1,no
0,0,0,0,0,no
0.00031,0.000109,0,0,0.00031,no
0.00031,0.000109,0,0,0.00031,no
0,0,0,0,0,no
0.00031,0.000109,0,0,0.00031,no
0.00031,0.000109,0.03125,0,0.00031,no
0.00031,0.000109,0.03125,0,0.00031,no
0.00062,0.000218,0.03125,0,0.00031,no
0,0,0.03125,0,0,no
0.301162,0.844723,0.09375,0,1,no
0,0,0.03125,0,0,no
0.00031,0.000109,0.15625,0.333333,0.00031,no
0.300968,0.844614,0,0,1,no
0.301472,0.845593,0.03125,0,1,no
0.301782,0.847116,0.03125,0,1,no
0.301433,0.846355,0,0,1,no
0.301433,0.846355,0,0,1,no
0.301433,0.846355,0,0,1,no
0.301433,0.846355,0,0,1,no
0.301433,0.846355,0.03125,0,1,no
0.40062,0.843634,0,0,1,no
0.30062,0.843852,0,0,1,no
0.40062,0.843634,0,0,1,no
0.40062,0.843634,0,0,1,no
0.40062,0.843634,0,0,1,no
0.40062,0.843634,0,0,1,no
0,0,0,0,0,no
0,0,0.03125,0,0,no
0.008521,0.003047,0.03125,0,0.008211,no
0.008211,0.002938,0.0625,0,0.008211,no
0.301007,0.84494,0,0,1,no
0.00426,0.003047,0,0,0.008211,no
0,0,0,0,0,no
0,0,0,0,0,no
0,0,0,0,0,no
0,0,0,0,0,no
0,0,0,0,0,no
0,0,0.03125,0,0,no
0,0,0.03125,0,0,no
0,0,0,0,0,no
0,0,0,0,0,no
0,0,0,0,0,no
0,0,0,0,0,no
0.40062,0.843634,0,0,1,no
0.001239,0.000871,0,0,0.001239,no
0.40062,0.843634,0,0,1,no
0,0,0,0,0,no
0,0,0,0,0,no
0.00031,0.000109,0,0,0.00031,no
0.40062,0.843634,0,0,1,no
0.40062,0.843634,0.03125,0,1,no
0,0,0,0,0,no
0.00031,0.000109,0,0,0.00031,no
0.00031,0.000109,0,0,0.00031,no
0,0,0,0,0,no
0.00031,0.000109,0,0,0.00031,no
0.00031,0.000109,0.03125,0,0.00031,no
0.00031,0.000109,0.03125,0,0.00031,no
0.00062,0.000218,0.03125,0,0.00031,no
0,0,0.03125,0,0,no
0.356545,1,0.21875,0.333333,1,no
0,0,0.03125,0,0,no
0.00031,0.000109,0.15625,0.333333,0.00031,no
0.355461,0.998041,0.03125,0,1,no
0.355577,0.998259,0.03125,0,1,no
0.355655,0.998368,0.03125,0,1,no
0.355461,0.998041,0.03125,0,1,no
0.355809,0.998585,0.0625,0,1,no
0.355809,0.998585,0.03125,0,1,no
0.355809,0.998585,0.0625,0,1,no
0.355616,0.998259,0.0625,0,1,no
0.356081,0.999782,0.03125,0,1,no
0.356081,0.999782,0.03125,0,1,no
0.355693,0.998368,0.03125,0,1,no
0.449729,0.947008,0.03125,0,1,no
0.337761,0.947878,0.03125,0,1,no
0.337723,0.947769,0,0,1,no
0.337839,0.947878,0.03125,0,1,no
0.337607,0.947769,0.03125,0,1,no
0.337607,0.947769,0,0,1,no
0.337452,0.947443,0,0,1,no
0.337374,0.947225,0,0,1,no
0.337761,0.948096,0.03125,0,1,no
0.449729,0.947008,0,0,1,no
0.449729,0.947008,0,0,1,no
0.449729,0.947008,0,0,1,no
0.337374,0.947116,0,0,1,no
0.449729,0.947008,0,0,1,no
0.449729,0.947008,0,0,1,no
0.449729,0.947008,0,0,1,no
0.021998,0.007943,0,0,0.021998,no
0.00031,0.000109,0,0,0.00031,no
0,0,0,0,0,no
0,0,0,0,0,no
0.449729,0.947008,0,0,1,no
0.449729,0.947008,0,0,1,no
0.449729,0.947008,0,0,1,no
0.449729,0.947008,0,0,1,no
0.449729,0.947008,0.0625,0,1,no
0.449729,0.947008,0.03125,0,1,no
0,0,0,0,0,no
0,0,0.03125,0,0,no
0.008521,0.003047,0.03125,0,0.008211,no
0.008211,0.002938,0.0625,0,0.008211,no
0.338187,0.949293,0,0,1,no
0.00426,0.003047,0,0,0.008211,no
0,0,0,0,0,no
0,0,0,0,0,no
0,0,0,0,0,no
0,0,0,0,0,no
0,0,0,0,0,no
0,0,0.03125,0,0,no
0,0,0.03125,0,0,no
0,0,0,0,0,no
0,0,0,0,0,no
0,0,0,0,0,no
0,0,0,0,0,no
0.449729,0.947008,0,0,1,no
0.001239,0.000871,0,0,0.001239,no
0.449729,0.947008,0,0,1,no
0,0,0,0,0,no
0,0,0,0,0,no
0.00031,0.000109,0,0,0.00031,no
0.337878,0.948531,0,0,1,no
0.337878,0.948531,0.03125,0,1,no
0,0,0,0,0,no
0.00031,0.000109,0,0,0.00031,no
0.00031,0.000109,0,0,0.00031,no
0,0,0,0,0,no
0.00031,0.000109,0,0,0.00031,no
0.00031,0.000109,0.03125,0,0.00031,no
0.00031,0.000109,0.03125,0,0.00031,no
0.00062,0.000218,0.03125,0,0.00031,no
0,0,0.03125,0,0,no
0.337761,0.948313,0.09375,0,1,no
0,0,0.03125,0,0,no
0.00031,0.000109,0.15625,0.333333,0.00031,no
0.337723,0.947987,0,0,1,no
0.337839,0.948205,0.03125,0,1,no
0.33873,0.950598,0.0625,0,1,no
0.338187,0.949402,0.03125,0,1,no
0.338497,0.950054,0.0625,0,1,no
0.337607,0.947769,0.03125,0,1,no
0.426285,0.897497,0,0,1,no
0.425871,0.896736,0.03125,0,1,no
0.319597,0.89728,0.03125,0,1,no
0.425871,0.896736,0,0,1,no
0.425871,0.896736,0.03125,0,1,no
0.425871,0.896736,0.03125,0,1,no
0.425871,0.896736,0,0,1,no
0.425871,0.896736,0,0,1,no
0.634469,0.890642,0,0,1,no
0.634469,0.890642,0,0,1,no
0.424064,0.891839,0,0,1,no
0.423754,0.891186,0,0,1,no
0,0,0,0,0,no
0,0,0.03125,0,0,no
0.319985,0.898368,0,0,1,no
0.319985,0.898368,0,0,1,no
0.319985,0.898368,0,0,1,no
0.319985,0.898368,0,0,1,no
0.31952,0.897062,0,0,1,no
0.425975,0.896953,0,0,1,no
0.021998,0.007943,0,0,0.021998,no
0.00031,0.000109,0,0,0.00031,no
0,0,0,0,0,no
0,0,0,0,0,no
0.634469,0.890642,0,0,1,no
0.634469,0.890642,0,0,1,no
0.424064,0.891839,0,0,1,no
0.423754,0.891186,0,0,1,no
0,0,0,0,0,no
0,0,0.03125,0,0,no
0.634469,0.890642,0,0,1,no
0.423393,0.891295,0,0,1,no
0.423393,0.891295,0,0,1,no
0.423393,0.891295,0,0,1,no
0,0,0,0,0,no
0,0,0.03125,0,0,no
0.008521,0.003047,0.03125,0,0.008211,no
0.008211,0.002938,0.0625,0,0.008211,no
0.423548,0.891621,0,0,1,no
0.00426,0.003047,0,0,0.008211,no
0,0,0,0,0,no
0,0,0,0,0,no
0,0,0,0,0,no
0,0,0,0,0,no
0,0,0,0,0,no
0,0,0.03125,0,0,no
0,0,0.03125,0,0,no
0,0,0,0,0,no
0,0,0,0,0,no
0,0,0,0,0,no
0,0,0,0,0,no
0.424167,0.892709,0,0,1,no
0.001239,0.000871,0,0,0.001239,no
0.424167,0.892709,0,0,1,no
0,0,0,0,0,no
0,0,0,0,0,no
0.00031,0.000109,0,0,0.00031,no
0.423238,0.891077,0,0,1,no
0.423238,0.891077,0.03125,0,1,no
0,0,0,0,0,no
0.00031,0.000109,0,0,0.00031,no
0.00031,0.000109,0,0,0.00031,no
0,0,0,0,0,no
0.00031,0.000109,0,0,0.00031,no
0.00031,0.000109,0.03125,0,0.00031,no
0.00031,0.000109,0.03125,0,0.00031,no
0.00062,0.000218,0.03125,0,0.00031,no
0,0,0.03125,0,0,no
0.31828,0.892601,0.15625,0,1,no
0,0,0.03125,0,0,no
0.00031,0.000109,0.15625,0.333333,0.00031,no
0.634469,0.890642,0,0,1,no
0.634469,0.890642,0,0,1,no
0.634469,0.890642,0.03125,0,1,no
0.423289,0.891295,0,0,1,no
0.424064,0.891839,0,0,1,no
0.423754,0.891186,0,0,1,no
0.425201,0.894015,0.03125,0,1,no
0.424426,0.893471,0,0,1,no
0,0,0,0,0,no
0,0,0.03125,0,0,no
0,0,0.0625,0,0,no
0,0,0.03125,0,0,no
0,0,0.0625,0,0,no
0,0,0.03125,0,0,no
0.32196,0.903808,0,0,1,no
0.320798,0.900544,0.03125,0,1,no
0.320914,0.900762,0.03125,0,1,no
0.320798,0.900544,0,0,1,no
0.32103,0.900979,0.03125,0,1,no
0.324051,0.908814,0.0625,0,1,no
0.426697,0.89815,0.03125,0,1,no
0.426697,0.89815,0.0625,0,1,no
0.426697,0.89815,0.03125,0,1,no
0.426697,0.89815,0,0,1,no
0.426697,0.89815,0.03125,0,1,no
0.426697,0.89815,0.03125,0,1,no
0.342009,0.717737,0,0,1,no
0.342009,0.717737,0,0,1,no
0.342009,0.717737,0,0,1,no
0.342009,0.717737,0,0,1,no
0.423083,0.890751,0,0,1,no
0.634469,0.890642,0,0,1,no
0.021998,0.007943,0,0,0.021998,no
0.00031,0.000109,0,0,0.00031,no
0,0,0,0,0,no
0,0,0,0,0,no
0.342009,0.717737,0,0,1,no
0.342009,0.717737,0,0,1,no
0.342009,0.717737,0,0,1,no
0.342009,0.717737,0,0,1,no
0,0,0,0,0,no
0,0,0.03125,0,0,no
0.008521,0.003047,0.03125,0,0.008211,no
0.008211,0.002938,0.0625,0,0.008211,no
0.423032,0.890751,0,0,1,no
0.00426,0.003047,0,0,0.008211,no
0,0,0,0,0,no
0,0,0,0,0,no
0,0,0,0,0,no
0,0,0,0,0,no
0,0,0,0,0,no
0,0,0.03125,0,0,no
0,0,0.03125,0,0,no
0,0,0,0,0,no
0,0,0,0,0,no
0,0,0,0,0,no
0,0,0,0,0,no
0.634469,0.890642,0,0,1,no
0.001239,0.000871,0,0,0.001239,no
0.504028,0.705114,0,0,1,no
0,0,0,0,0,no
0,0,0,0,0,no
0.00031,0.000109,0,0,0.00031,no
0.504028,0.705114,0,0,1,no
0.50457,0.70555,0.03125,0,1,no
0,0,0,0,0,no
0.00031,0.000109,0,0,0.00031,no
0.00031,0.000109,0,0,0.00031,no
0,0,0,0,0,no
0.00031,0.000109,0,0,0.00031,no
0.00031,0.000109,0.03125,0,0.00031,no
0.00031,0.000109,0.03125,0,0.00031,no
0.00062,0.000218,0.03125,0,0.00031,no
0,0,0.03125,0,0,no
0.334624,0.703373,0.09375,0,1,no
0,0,0.03125,0,0,no
0.00031,0.000109,0.15625,0.333333,0.00031,no
0.342009,0.717737,0,0,1,no
0.342009,0.717737,0,0,1,no
0.342164,0.717954,0.03125,0,1,no
0.341854,0.717519,0,0,1,no
0.342009,0.717737,0,0,1,no
0.342009,0.717737,0,0,1,no
0.342164,0.718063,0,0,1,no
0.342009,0.717845,0,0,1,no
0.34268,0.719369,0,0,1,no
0.34268,0.719369,0,0,1,no
0.342112,0.720022,0.03125,0,1,no
0.34206,0.719695,0.03125,0,1,no
0.341802,0.719478,0.03125,0,1,no
0.34237,0.71839,0,0,1,no
0.34237,0.71839,0,0,1,no
0.342421,0.71839,0,0,1,no
0.342421,0.71839,0,0,1,no
0.021998,0.007943,0,0,0.021998,no
0.00031,0.000109,0,0,0.00031,no
0,0,0,0,0,no
0,0,0,0,0,no
0.34268,0.719369,0,0,1,no
0.34268,0.719369,0,0,1,no
0.342112,0.720022,0.03125,0,1,no
0.342886,0.72198,0,0,1,no
0.341802,0.719478,0.03125,0,1,no
0.34206,0.719695,0.03125,0,1,no
0.341854,0.719695,0,0,1,no
0,0,0,0,0,no
0,0,0.03125,0,0,no
0.008521,0.003047,0.03125,0,0.008211,no
0.008211,0.002938,0.0625,0,0.008211,no
0.34206,0.720022,0,0,1,no
0.00426,0.003047,0,0,0.008211,no
0,0,0,0,0,no
0,0,0,0,0,no
0,0,0,0,0,no
0,0,0,0,0,no
0,0,0,0,0,no
0,0,0.03125,0,0,no
0,0,0.03125,0,0,no
0,0,0,0,0,no
0,0,0,0,0,no
0,0,0,0,0,no
0,0,0,0,0,no
0.342266,0.720239,0,0,1,no
0.001239,0.000871,0,0,0.001239,no
0.343816,0.720022,0,0,1,no
0,0,0,0,0,no
0,0,0,0,0,no
0.00031,0.000109,0,0,0.00031,no
0.337052,0.706746,0,0,1,no
0.337464,0.707182,0.03125,0,1,no
0,0,0,0,0,no
0.00031,0.000109,0,0,0.00031,no
0.00031,0.000109,0,0,0.00031,no
0,0,0,0,0,no
0.00031,0.000109,0,0,0.00031,no
0.00031,0.000109,0.03125,0,0.00031,no
0.00031,0.000109,0.03125,0,0.00031,no
0.00062,0.000218,0.03125,0,0.00031,no
0,0,0.03125,0,0,no
0.343249,0.720348,0.25,0.333333,1,no
0,0,0.03125,0,0,no
0.00031,0.000109,0.15625,0.333333,0.00031,no
0.34268,0.719369,0,0,1,no
0.34268,0.719369,0,0,1,no
0.334934,0.705005,0,0,1,no
0.343196,0.721763,0,0,1,no
0.341441,0.718934,0.03125,0,1,no
0.342112,0.720022,0.03125,0,1,no
0.341802,0.719478,0.03125,0,1,no
0.34206,0.719695,0.03125,0,1,no
0.342576,0.720566,0.0625,0,1,no
0.342164,0.719804,0.03125,0,1,no
0.343041,0.722089,0.0625,0,1,no
0.342576,0.721328,0.0625,0,1,no
0.342576,0.721328,0.03125,0,1,no
0.341699,0.719478,0.03125,0,1,no
0.34206,0.719913,0.03125,0,1,no
0.511929,0.718607,0.03125,0,1,no
0.511929,0.718607,0.03125,0,1,no
0.341337,0.718716,0,0,1,no
0.341854,0.719587,0.03125,0,1,no
0.343868,0.720131,0.03125,0,1,no
0.335399,0.704353,0,0,1,no
0.335348,0.704244,0,0,1,no
0.336689,0.70457,0,0,1,no
0.337309,0.705223,0.03125,0,1,no
0.071159,0.149946,0,0,0.123005,no
0.071159,0.149946,0,0,0.123005,no
0.3449,0.72383,0,0,1,no
0.517041,0.723613,0,0,1,no
0.345055,0.724374,0,0,1,no
0.517041,0.723613,0,0,1,no
0.517041,0.723613,0,0,1,no
0.071572,0.150816,0,0,0.123005,no
0.071572,0.150816,0,0,0.123005,no
0.517041,0.723613,0,0,1,no
0.517041,0.723613,0,0,1,no
0.106352,0.149402,0,0,0.123005,no
0.106352,0.149402,0,0,0.123005,no
0.334418,0.703373,0,0,1,no
0.33514,0.704461,0.03125,0,1,no
0.510844,0.714908,0,0,1,no
0.347328,0.731338,0,0,1,no
0.347328,0.731338,0.03125,0,1,no
0.510844,0.714908,0,0,1,no
0.347896,0.732535,0,0,1,no
0.279551,0.784875,0.03125,0,1,no
0.510844,0.714908,0,0,1,no
0.372115,0.783569,0,0,1,no
0.279396,0.784004,0.03125,0,1,no
0.510844,0.714908,0,0,1,no
0.365402,0.767247,0,0,1,no
0.365402,0.767247,0.03125,0,1,no
0.510844,0.714908,0,0,1,no
0.274129,0.767356,0,0,1,no
0.274167,0.767465,0.03125,0,1,no
0.340821,0.715452,0,0,1,no
0.510844,0.714908,0,0,1,no
0.510844,0.714908,0,0,1,no
0.510844,0.714908,0,0,1,no
0.510844,0.714908,0,0,1,no
0.510844,0.714908,0,0,1,no
0.021998,0.007943,0,0,0.021998,no
0.00031,0.000109,0,0,0.00031,no
0,0,0,0,0,no
0,0,0,0,0,no
0.071159,0.149946,0,0,0.123005,no
0.071159,0.149946,0,0,0.123005,no
0.3449,0.72383,0,0,1,no
0.517041,0.723613,0,0,1,no
0.345055,0.724374,0,0,1,no
0.517041,0.723613,0,0,1,no
0.517041,0.723613,0,0,1,no
0.071572,0.150816,0,0,0.123005,no
0.071572,0.150816,0,0,0.123005,no
0.517041,0.723613,0,0,1,no
0.517041,0.723613,0,0,1,no
0.106352,0.149402,0,0,0.123005,no
0.106352,0.149402,0,0,0.123005,no
0.334418,0.703373,0,0,1,no
0.33514,0.704461,0.03125,0,1,no
0.339427,0.714363,0,0,1,no
0.347328,0.731338,0,0,1,no
0.347328,0.731338,0.03125,0,1,no
0.508521,0.713819,0,0,1,no
0.347896,0.732535,0,0,1,no
0.279551,0.784875,0.03125,0,1,no
0.508521,0.713819,0,0,1,no
0.372115,0.783569,0,0,1,no
0.279396,0.784004,0.03125,0,1,no
0.339633,0.715125,0,0,1,no
0.365402,0.767247,0,0,1,no
0.365402,0.767247,0.03125,0,1,no
0.508521,0.713819,0,0,1,no
0.274129,0.767356,0,0,1,no
0.274167,0.767465,0.03125,0,1,no
0.339686,0.715234,0,0,1,no
0.339686,0.715234,0,0,1,no
0.339686,0.715234,0,0,1,no
0.254802,0.715343,0,0,1,no
0,0,0,0,0,no
0,0,0.03125,0,0,no
0.008521,0.003047,0.03125,0,0.008211,no
0.008211,0.002938,0.0625,0,0.008211,no
0.339066,0.713928,0,0,1,no
0.00426,0.003047,0,0,0.008211,no
0,0,0,0,0,no
0,0,0,0,0,no
0,0,0,0,0,no
0,0,0,0,0,no
0,0,0,0,0,no
0,0,0.03125,0,0,no
0,0,0.03125,0,0,no
0,0,0,0,0,no
0,0,0,0,0,no
0,0,0,0,0,no
0,0,0,0,0,no
0.339478,0.71469,0,0,1,no
0.001239,0.000871,0,0,0.001239,no
0.339478,0.71469,0,0,1,no
0,0,0,0,0,no
0,0,0,0,0,no
0.00031,0.000109,0,0,0.00031,no
0.508521,0.713819,0,0,1,no
0.253602,0.705658,0.03125,0,1,no
0,0,0,0,0,no
0.00031,0.000109,0,0,0.00031,no
0.00031,0.000109,0,0,0.00031,no
0,0,0,0,0,no
0.00031,0.000109,0,0,0.00031,no
0.00031,0.000109,0.03125,0,0.00031,no
0.00031,0.000109,0.03125,0,0.00031,no
0.00062,0.000218,0.03125,0,0.00031,no
0,0,0.03125,0,0,no
0.255461,0.716866,0.46875,0.666667,1,no
0,0,0.03125,0,0,no
0.00031,0.000109,0.15625,0.333333,0.00031,no
0.071159,0.149946,0,0,0.123005,no
0.071159,0.149946,0,0,0.123005,no
0.071159,0.149946,0.03125,0,0.123005,no
0.106352,0.149402,0,0,0.123005,no
0.3449,0.72383,0,0,1,no
0.517041,0.723613,0,0,1,no
0.3449,0.72383,0.03125,0,1,no
0.3449,0.72383,0,0,1,no
0.345055,0.724374,0.03125,0,1,no
0.345055,0.724374,0,0,1,no
0.517041,0.723613,0,0,1,no
0.517041,0.723613,0,0,1,no
0.517041,0.723613,0.03125,0,1,no
0.517041,0.723613,0.03125,0,1,no
0.517041,0.723613,0,0,1,no
0.517041,0.723613,0,0,1,no
0.071572,0.150816,0,0,0.123005,no
0.071572,0.150816,0,0,0.123005,no
0.071572,0.150816,0,0,0.123005,no
0.071624,0.150925,0,0,0.123005,no
0.517041,0.723613,0,0,1,no
0.517041,0.723613,0,0,1,no
0.345004,0.724266,0,0,1,no
0.345778,0.72481,0,0,1,no
0.106352,0.149402,0,0,0.123005,no
0.106352,0.149402,0,0,0.123005,no
0.106352,0.149402,0.03125,0,0.123005,no
0.089698,0.063003,0,0,0.089698,no
0.334418,0.703373,0,0,1,no
0.33514,0.704461,0.03125,0,1,no
0.348051,0.732427,0.0625,0,1,no
0.347534,0.731556,0.03125,0,1,no
0.348361,0.732753,0.0625,0,1,no
0.347844,0.7321,0.03125,0,1,no
0.520914,0.73123,0,0,1,no
0.520914,0.73123,0.03125,0,1,no
0.347483,0.731665,0.03125,0,1,no
0.347328,0.731338,0,0,1,no
0.347328,0.731338,0.03125,0,1,no
0.347431,0.731447,0.0625,0,1,no
0.347483,0.731556,0.03125,0,1,no
0.347792,0.731882,0.0625,0,1,no
0.347534,0.731556,0.03125,0,1,no
0.347431,0.731447,0,0,1,no
0.347637,0.731665,0.03125,0,1,no
0.347534,0.731556,0.03125,0,1,no
0.347896,0.732535,0,0,1,no
0.279551,0.784875,0.03125,0,1,no
0.279822,0.78531,0.0625,0,1,no
0.372115,0.783569,0.03125,0,1,no
0.279551,0.78444,0.0625,0,1,no
0.279938,0.78531,0.03125,0,1,no
0.279512,0.784548,0,0,1,no
0.279899,0.785528,0.03125,0,1,no
0.279822,0.78531,0.03125,0,1,no
0.372115,0.783569,0,0,1,no
0.279396,0.784004,0.03125,0,1,no
0.280015,0.78444,0.0625,0,1,no
0.270798,0.756692,0.03125,0,1,no
0.275639,0.756583,0.0625,0,1,no
0.367312,0.755604,0.03125,0,1,no
0.360237,0.755277,0,0,1,no
0.359462,0.75506,0.03125,0,1,no
0.366899,0.768553,0.03125,0,1,no
0.365402,0.767247,0,0,1,no
0.365402,0.767247,0.03125,0,1,no
0.274284,0.7679,0.0625,0,1,no
0.274864,0.768444,0.03125,0,1,no
0.274942,0.769532,0.0625,0,1,no
0.274942,0.769532,0.03125,0,1,no
0.274438,0.768009,0,0,1,no
0.274516,0.768118,0.03125,0,1,no
0.274129,0.767356,0.03125,0,1,no
0.274129,0.767356,0,0,1,no
0.274167,0.767465,0.03125,0,1,no
0.275019,0.769206,0.0625,0,1,no
0.27471,0.770076,0.03125,0,1,no
0.364937,0.768444,0.0625,0,1,no
0.274322,0.770185,0.03125,0,1,no
0.274322,0.770185,0,0,1,no
0.274322,0.770185,0.03125,0,1,no
0.221782,0.778346,0.03125,0,1,no
0.277188,0.778237,0,0,1,no
0.221844,0.778455,0.03125,0,1,no
0.221782,0.778346,0.0625,0,1,no
0.221905,0.778564,0.03125,0,1,no
0.222153,0.779217,0.0625,0,1,no
0.222091,0.779217,0.03125,0,1,no
0.222246,0.779652,0,0,1,no
0.222618,0.779652,0.03125,0,1,no
0.219489,0.766703,0.03125,0,1,no
0.336534,0.703591,0,0,1,no
0.334675,0.703047,0.03125,0,1,no
0.358637,0.75506,0,0,1,no
0.270139,0.755822,0,0,1,no
0.270759,0.75778,0,0,1,no
0.021998,0.007943,0,0,0.021998,no
0.00031,0.000109,0,0,0.00031,no
0,0,0,0,0,no
0,0,0,0,0,no
0.336534,0.703591,0,0,1,no
0.334675,0.703047,0.03125,0,1,no
0.341647,0.717193,0,0,1,no
0,0,0,0,0,no
0,0,0.03125,0,0,no
0.008521,0.003047,0.03125,0,0.008211,no
0.008211,0.002938,0.0625,0,0.008211,no
0.342009,0.717519,0,0,1,no
0.00426,0.003047,0,0,0.008211,no
0,0,0,0,0,no
0,0,0,0,0,no
0,0,0,0,0,no
0,0,0,0,0,no
0,0,0,0,0,no
0,0,0.03125,0,0,no
0,0,0.03125,0,0,no
0,0,0,0,0,no
0,0,0,0,0,no
0,0,0,0,0,no
0,0,0,0,0,no
0.512084,0.716649,0,0,1,no
0.001239,0.000871,0,0,0.001239,no
0.512548,0.716975,0,0,1,no
0,0,0,0,0,no
0,0,0,0,0,no
0.00031,0.000109,0,0,0.00031,no
0.341802,0.719695,0,0,1,no
0.341802,0.719695,0.03125,0,1,no
0,0,0,0,0,no
0.00031,0.000109,0,0,0.00031,no
0.00031,0.000109,0,0,0.00031,no
0,0,0,0,0,no
0.00031,0.000109,0,0,0.00031,no
0.00031,0.000109,0.03125,0,0.00031,no
0.00031,0.000109,0.03125,0,0.00031,no
0.00062,0.000218,0.03125,0,0.00031,no
0,0,0.03125,0,0,no
0.257281,0.722089,0.0625,0,1,no
0,0,0.03125,0,0,no
0.00031,0.000109,0.15625,0.333333,0.00031,no
0.336534,0.703591,0,0,1,no
0.334675,0.703047,0.03125,0,1,no
0.253253,0.705005,0.0625,0,1,no
0.345624,0.704897,0.03125,0,1,no
0.169326,0.70642,0.0625,0,1,no
0.201332,0.704353,0.03125,0,1,no
0.256584,0.717193,0,0,1,no
0.255926,0.715996,0.03125,0,1,no
0.255616,0.715343,0.03125,0,1,no
0.256003,0.716104,0,0,1,no
0.256003,0.716104,0,0,1,no
0.255655,0.715452,0,0,1,no
0,0,0,0,0,no
0,0,0,0,0,no
0.341027,0.715778,0,0,1,no
0.341027,0.715778,0,0,1,no
0.341027,0.715778,0,0,1,no
0.341027,0.715778,0,0,1,no
0.255887,0.715996,0,0,1,no
0.255887,0.715996,0,0,1,no
0.021998,0.007943,0,0,0.021998,no
0.00031,0.000109,0,0,0.00031,no
0,0,0,0,0,no
0,0,0,0,0,no
0.340925,0.715669,0,0,1,no
0.510844,0.714908,0,0,1,no
0.510844,0.714908,0,0,1,no
0,0,0,0,0,no
0,0,0,0,0,no
0.510844,0.714908,0,0,1,no
0.511464,0.715234,0.0625,0,1,no
0.341235,0.718498,0.03125,0,1,no
0.511541,0.718063,0,0,1,no
0.511541,0.718063,0,0,1,no
0,0,0,0,0,no
0,0,0.03125,0,0,no
0.008521,0.003047,0.03125,0,0.008211,no
0.008211,0.002938,0.0625,0,0.008211,no
0.341286,0.718607,0,0,1,no
0.00426,0.003047,0,0,0.008211,no
0,0,0,0,0,no
0,0,0,0,0,no
0,0,0,0,0,no
0,0,0,0,0,no
0,0,0,0,0,no
0,0,0.03125,0,0,no
0,0,0.03125,0,0,no
0,0,0,0,0,no
0,0,0,0,0,no
0,0,0,0,0,no
0,0,0,0,0,no
0.338652,0.71197,0,0,1,no
0.001239,0.000871,0,0,0.001239,no
0.253912,0.712405,0,0,1,no
0,0,0,0,0,no
0,0,0,0,0,no
0.00031,0.000109,0,0,0.00031,no
0.203129,0.712622,0,0,1,no
0.169455,0.713058,0.03125,0,1,no
0,0,0,0,0,no
0.00031,0.000109,0,0,0.00031,no
0.00031,0.000109,0,0,0.00031,no
0,0,0,0,0,no
0.00031,0.000109,0,0,0.00031,no
0.00031,0.000109,0.03125,0,0.00031,no
0.00031,0.000109,0.03125,0,0.00031,no
0.00062,0.000218,0.03125,0,0.00031,no
0,0,0.03125,0,0,no
0.353473,0.723177,0.15625,0,1,no
0,0,0.03125,0,0,no
0.00031,0.000109,0.15625,0.333333,0.00031,no
0.347328,0.717845,0,0,1,no
0.519365,0.71556,0.03125,0,1,no
0.346553,0.716213,0.0625,0,1,no
0.347328,0.716757,0.03125,0,1,no
0.347379,0.717737,0.0625,0,1,no
0.347792,0.718063,0.03125,0,1,no
0.500155,0.702067,0,0,1,no
1,0.701959,0.03125,0,1,no
0.500387,0.702285,0.03125,0,1,no
0,0,0,0,0,no
0,0,0,0,0,no
0,0,0,0,0,no
0,0,0,0,0,no
1,0.701959,0,0,1,no
0.500077,0.702067,0.03125,0,1,no
0.334056,0.703482,0.03125,0,1,no
0.334056,0.703482,0,0,1,no
0.500775,0.703047,0,0,1,no
0.333901,0.703156,0,0,1,no
0.500775,0.703047,0,0,1,no
0.333436,0.702176,0,0,1,no
0.500232,0.702176,0,0,1,no
0.089698,0.063003,0,0,0.089698,no
0.089698,0.063003,0,0,0.089698,no
0.068784,0.096627,0,0,0.135709,no
0.068784,0.096627,0,0,0.135709,no
0.00093,0.001197,0,0,0.001549,no
0.00093,0.001197,0,0,0.001549,no
0,0,0,0,0,no
0,0,0,0,0,no
1,0.701959,0,0,1,no
1,0.701959,0,0,1,no
1,0.701959,0,0,1,no
1,0.701959,0,0,1,no
1,0.701959,0,0,1,no
0.502479,0.705441,0,0,1,no
0.33514,0.705767,0,0,1,no
0.021998,0.007943,0,0,0.021998,no
0.00031,0.000109,0,0,0.00031,no
0,0,0,0,0,no
0,0,0,0,0,no
0,0,0,0,0,no
0.000775,0.000544,0.125,0,0.000775,no
0,0,0,0,0,no
0.000775,0.001088,0,0,0.001394,no
0.001317,0.001632,0,0,0.001394,no
0,0,0,0,0,no
0,0,0,0,0,no
0.001704,0.000762,0.03125,0,0.001704,no
0.005112,0.003156,0,0,0.005112,no
0.089698,0.063003,0,0,0.089698,no
0.089698,0.063003,0,0,0.089698,no
0.068784,0.096627,0,0,0.135709,no
0.068784,0.096627,0,0,0.135709,no
0.00093,0.001197,0,0,0.001549,no
0.00093,0.001197,0,0,0.001549,no
0,0,0,0,0,no
0,0,0,0,0,no
0.013943,0.009793,0,0,0.013943,no
0.007823,0.010555,0,0,0.013943,no
0.007823,0.010555,0,0,0.013943,no
0.007126,0.010011,0,0,0.013943,no
0.004854,0.010229,0,0,0.013943,no
0,0,0,0,0,no
0,0,0.03125,0,0,no
0.008521,0.003047,0.03125,0,0.008211,no
0.008211,0.002938,0.0625,0,0.008211,no
0.00062,0.000218,0,0,0.00031,no
0.00426,0.003047,0,0,0.008211,no
0,0,0,0,0,no
0,0,0,0,0,no
0,0,0,0,0,no
0,0,0,0,0,no
0,0,0,0,0,no
0,0,0.03125,0,0,no
0,0,0.03125,0,0,no
0,0,0,0,0,no
0,0,0,0,0,no
0,0,0,0,0,no
0,0,0,0,0,no
0,0,0,0,0,no
0.001239,0.000871,0,0,0.001239,no
0,0,0,0,0,no
0,0,0,0,0,no
0,0,0,0,0,no
0.00031,0.000109,0,0,0.00031,no
0.005887,0.002829,0,0,0.003563,no
0.003563,0.002285,0.03125,0,0.003563,no
0,0,0,0,0,no
0.00031,0.000109,0,0,0.00031,no
0.00031,0.000109,0,0,0.00031,no
0,0,0,0,0,no
0.00031,0.000109,0,0,0.00031,no
0.00031,0.000109,0.03125,0,0.00031,no
0.00031,0.000109,0.03125,0,0.00031,no
0.00062,0.000218,0.03125,0,0.00031,no
0,0,0.03125,0,0,no
0.005422,0.003482,0.21875,0.333333,0.005422,no
0,0,0.03125,0,0,no
0.00031,0.000109,0.15625,0.333333,0.00031,no
0.089698,0.063003,0,0,0.089698,no
0.089698,0.063003,0,0,0.089698,no
0.044926,0.063112,0.03125,0,0.089698,no
0,0,0,0,0,no
0.068784,0.096627,0,0,0.135709,no
0.068784,0.096627,0,0,0.135709,no
0.035864,0.099891,0.03125,0,0.135709,no
0.046527,0.097824,0,0,0.135709,no
0.00093,0.001197,0,0,0.001549,no
0.00093,0.001197,0,0,0.001549,no
0.001162,0.001415,0,0,0.001549,no
0.000542,0.000435,0,0,0.000775,no
0,0,0,0,0,no
0,0,0,0,0,no
0,0,0,0,0,no
0,0,0,0,0,no
0.000155,0.000109,0,0,0.000155,no
0.000465,0.000326,0.03125,0,0.00031,no
0.001472,0.001632,0.0625,0,0.001394,no
0.001704,0.003264,0.03125,0,0.001704,no
0.002711,0.003047,0.0625,0,0.001704,no
0.001239,0.000871,0.03125,0,0.000775,no
0.000542,0.000544,0,0,0.000465,no
0.000775,0.000762,0.03125,0,0.00093,no
0.001084,0.00185,0.03125,0,0.001549,no
0.001859,0.000979,0,0,0.001859,no
0.001239,0.002612,0,0,0.001859,no
0.00151,0.002938,0,0,0.002014,no
0.001201,0.00272,0,0,0.002014,no
0.003873,0.00272,0,0,0.003873,no
0.003873,0.00272,0,0,0.003873,no
0.068784,0.096627,0,0,0.135709,no
0.068784,0.096627,0,0,0.135709,no
0,0,0,0,0,no
0,0,0,0,0,no
0.002246,0.003156,0,0,0.003873,no
0.002246,0.003156,0,0,0.003873,no
0.002246,0.003156,0,0,0.003873,no
0.003873,0.00272,0,0,0.003873,no
0.003873,0.00272,0,0,0.003873,no
0.003873,0.00272,0,0,0.003873,no
0.003873,0.00272,0,0,0.003873,no
0,0,0,0,0,no
0,0,0,0,0,no
0.00031,0.000109,0,0,0.00031,no
0,0,0,0,0,no
0.021998,0.007943,0,0,0.021998,no
0.00031,0.000109,0,0,0.00031,no
0,0,0,0,0,no
0,0,0,0,0,no
0.000775,0.000326,0,0,0.000775,no
0.000569,0.000871,0,0,0.000775,no
0.068784,0.096627,0,0,0.135709,no
0.068784,0.096627,0,0,0.135709,no
0,0,0,0,0,no
0,0,0,0,0,no
0.001859,0.001306,0,0,0.001859,no
0.001859,0.001306,0,0,0.001859,no
0.002324,0.001523,0,0,0.001859,no
0.000775,0.000544,0,0,0.000775,no
0.00062,0.000218,0.0625,0,0.00031,no
0.001394,0.001741,0.03125,0,0.001704,no
0.001704,0.000979,0,0,0.001704,no
0,0,0,0,0,no
0.001704,0.000762,0,0,0.001704,no
0,0,0,0,0,no
0,0,0,0,0,no
0,0,0.03125,0,0,no
0.008521,0.003047,0.03125,0,0.008211,no
0.008211,0.002938,0.0625,0,0.008211,no
0.013943,0.009793,0,0,0.013943,no
0.00426,0.003047,0,0,0.008211,no
0,0,0,0,0,no
0,0,0,0,0,no
0,0,0,0,0,no
0,0,0,0,0,no
0,0,0,0,0,no
0,0,0.03125,0,0,no
0,0,0.03125,0,0,no
0,0,0,0,0,no
0,0,0,0,0,no
0,0,0,0,0,no
0,0,0,0,0,no
0.028722,0.100435,0,0,0.135709,no
0.001239,0.000871,0,0,0.001239,no
0.046734,0.09815,0,0,0.135709,no
0,0,0,0,0,no
0,0,0,0,0,no
0.00031,0.000109,0,0,0.00031,no
0.068009,0.09543,0,0,0.135709,no
0.045495,0.095647,0.03125,0,0.135709,no
0,0,0,0,0,no
0.00031,0.000109,0,0,0.00031,no
0.00031,0.000109,0,0,0.00031,no
0,0,0,0,0,no
0.00031,0.000109,0,0,0.00031,no
0.00031,0.000109,0.03125,0,0.00031,no
0.00031,0.000109,0.03125,0,0.00031,no
0.00062,0.000218,0.03125,0,0.00031,no
0,0,0.03125,0,0,no
0.046476,0.097388,0.25,0.333333,0.135709,no
0,0,0.03125,0,0,no
0.00031,0.000109,0.15625,0.333333,0.00031,no
0.068242,0.095647,0,0,0.135709,no
0.135709,0.095321,0,0,0.135709,no
0.135709,0.095321,0,0,0.135709,no
0.068784,0.096627,0,0,0.135709,no
0.068784,0.096627,0,0,0.135709,no
0.068784,0.096627,0,0,0.135709,no
0.035864,0.099891,0.03125,0,0.135709,no
0.046527,0.097824,0,0,0.135709,no
0,0,0,0,0,no
0,0,0,0,0,no
0,0,0,0,0,no
0,0,0,0,0,no
0.135709,0.095321,0,0,0.135709,no
0.068706,0.0963,0.03125,0,0.135709,no
0.069558,0.097171,0.0625,0,0.135709,no
0.069094,0.096736,0.03125,0,0.135709,no
0.068474,0.095756,0.0625,0,0.135709,no
0.068319,0.095647,0.03125,0,0.135709,no
0.068009,0.09543,0,0,0.135709,no
0.068397,0.096083,0.03125,0,0.135709,no
0.068397,0.096083,0.03125,0,0.135709,no
0.135709,0.095321,0,0,0.135709,no
0.135709,0.095321,0.03125,0,0.135709,no
0.135709,0.095321,0.03125,0,0.135709,no
0.135709,0.095321,0,0,0.135709,no
0.135709,0.095321,0,0,0.135709,no
0.135709,0.095321,0,0,0.135709,no
0.135709,0.095321,0,0,0.135709,no
0.135709,0.095321,0,0,0.135709,no
0.135709,0.095321,0,0,0.135709,no
0.135709,0.095321,0,0,0.135709,no
0.068319,0.095974,0,0,0.135709,no
0.069481,0.096518,0,0,0.135709,no
0.070798,0.09815,0,0,0.135709,no
0.089698,0.063003,0,0,0.089698,no
0.089698,0.063003,0,0,0.089698,no
0,0,0,0,0,no
0,0,0.03125,0,0,no
0.135709,0.095321,0,0,0.135709,no
0.068629,0.096083,0,0,0.135709,no
0.068009,0.09543,0,0,0.135709,no
0.021998,0.007943,0,0,0.021998,no
0.00031,0.000109,0,0,0.00031,no
0,0,0,0,0,no
0,0,0,0,0,no
0.089698,0.063003,0,0,0.089698,no
0.089698,0.063003,0,0,0.089698,no
0,0,0,0,0,no
0,0,0.03125,0,0,no
0.069016,0.096627,0,0,0.135709,no
0,0,0,0,0,no
0,0,0.03125,0,0,no
0.008521,0.003047,0.03125,0,0.008211,no
0.008211,0.002938,0.0625,0,0.008211,no
0.067932,0.09543,0,0,0.135709,no
0.00426,0.003047,0,0,0.008211,no
0,0,0,0,0,no
0,0,0,0,0,no
0,0,0,0,0,no
0,0,0,0,0,no
0,0,0,0,0,no
0,0,0.03125,0,0,no
0,0,0.03125,0,0,no
0,0,0,0,0,no
0,0,0,0,0,no
0,0,0,0,0,no
0,0,0,0,0,no
0.068861,0.0963,0,0,0.135709,no
0.001239,0.000871,0,0,0.001239,no
0.068784,0.0963,0,0,0.135709,no
0,0,0,0,0,no
0,0,0,0,0,no
0.00031,0.000109,0,0,0.00031,no
0.068009,0.09543,0,0,0.135709,no
0.068552,0.096083,0.03125,0,0.135709,no
0,0,0,0,0,no
0.00031,0.000109,0,0,0.00031,no
0.00031,0.000109,0,0,0.00031,no
0,0,0,0,0,no
0.00031,0.000109,0,0,0.00031,no
0.00031,0.000109,0.03125,0,0.00031,no
0.00031,0.000109,0.03125,0,0.00031,no
0.00062,0.000218,0.03125,0,0.00031,no
0,0,0.03125,0,0,no
0.068706,0.096192,0.09375,0,0.135709,no
0,0,0.03125,0,0,no
0.00031,0.000109,0.15625,0.333333,0.00031,no
0.089698,0.063003,0,0,0.089698,no
0.089698,0.063003,0,0,0.089698,no
0.044926,0.063112,0.03125,0,0.089698,no
0,0,0,0,0,no
0,0,0,0,0,no
0,0,0.03125,0,0,no
0,0,0.0625,0,0,no
0,0,0.03125,0,0,no
0,0,0.0625,0,0,no
0,0,0.03125,0,0,no
0.005887,0.002829,0,0,0.003563,no
0.003563,0.002285,0.03125,0,0.003563,no
0.003563,0.002285,0.03125,0,0.003563,no
0.089698,0.063003,0,0,0.089698,no
0.089698,0.063003,0,0,0.089698,no
0,0,0,0,0,no
0.000465,0.000218,0,0,0.000465,no
0.021998,0.007943,0,0,0.021998,no
0.00031,0.000109,0,0,0.00031,no
0,0,0,0,0,no
0,0,0,0,0,no
0.089698,0.063003,0,0,0.089698,no
0.089698,0.063003,0,0,0.089698,no
0,0,0,0,0,no
0,0,0.03125,0,0,no
0.008521,0.003047,0.03125,0,0.008211,no
0.008211,0.002938,0.0625,0,0.008211,no
0.001549,0.001088,0,0,0.001549,no
0.00426,0.003047,0,0,0.008211,no
0,0,0,0,0,no
0,0,0,0,0,no
0,0,0,0,0,no
0,0,0,0,0,no
0,0,0,0,0,no
0,0,0.03125,0,0,no
0,0,0.03125,0,0,no
0,0,0,0,0,no
0,0,0,0,0,no
0,0,0,0,0,no
0,0,0,0,0,no
0.001394,0.000435,0,0,0.001394,no
0.001239,0.000871,0,0,0.001239,no
0.002169,0.001415,0,0,0.002169,no
0,0,0,0,0,no
0,0,0,0,0,no
0.00031,0.000109,0,0,0.00031,no
0.001704,0.000979,0,0,0.001704,no
0.001704,0.000979,0.03125,0,0.001704,no
0,0,0,0,0,no
0.00031,0.000109,0,0,0.00031,no
0.00031,0.000109,0,0,0.00031,no
0,0,0,0,0,no
0.00031,0.000109,0,0,0.00031,no
0.00031,0.000109,0.03125,0,0.00031,no
0.00031,0.000109,0.03125,0,0.00031,no
0.00062,0.000218,0.03125,0,0.00031,no
0,0,0.03125,0,0,no
0.008675,0.006094,0.0625,0,0.008675,no
0,0,0.03125,0,0,no
0.00031,0.000109,0.15625,0.333333,0.00031,no
0.089698,0.063003,0,0,0.089698,no
0.089698,0.063003,0,0,0.089698,no
0.044926,0.063112,0.03125,0,0.089698,no
0,0,0,0,0,no
0.089698,0.063003,0,0,0.089698,no
0.089698,0.063003,0,0,0.089698,no
0.061735,0.086725,0,0,0.069404,no
0.061735,0.086725,0,0,0.069404,no
0.021998,0.007943,0,0,0.021998,no
0.00031,0.000109,0,0,0.00031,no
0,0,0,0,0,no
0,0,0,0,0,no
0.089698,0.063003,0,0,0.089698,no
0.089698,0.063003,0,0,0.089698,no
0,0,0,0,0,no
0,0,0.03125,0,0,no
0.008521,0.003047,0.03125,0,0.008211,no
0.008211,0.002938,0.0625,0,0.008211,no
0.061735,0.086725,0,0,0.069404,no
0.00426,0.003047,0,0,0.008211,no
0,0,0,0,0,no
0,0,0,0,0,no
0,0,0,0,0,no
0,0,0,0,0,no
0,0,0,0,0,no
0,0,0.03125,0,0,no
0,0,0.03125,0,0,no
0,0,0,0,0,no
0,0,0,0,0,no
0,0,0,0,0,no
0,0,0,0,0,no
0.061735,0.086725,0,0,0.069404,no
0.001239,0.000871,0,0,0.001239,no
0.061735,0.086725,0,0,0.069404,no
0,0,0,0,0,no
0,0,0,0,0,no
0.00031,0.000109,0,0,0.00031,no
0.061735,0.086725,0,0,0.069404,no
0.061735,0.086725,0.03125,0,0.069404,no
0,0,0,0,0,no
0.00031,0.000109,0,0,0.00031,no
0.00031,0.000109,0,0,0.00031,no
0,0,0,0,0,no
0.00031,0.000109,0,0,0.00031,no
0.00031,0.000109,0.03125,0,0.00031,no
0.00031,0.000109,0.03125,0,0.00031,no
0.00062,0.000218,0.03125,0,0.00031,no
0,0,0.03125,0,0,no
0.061735,0.086725,0.0625,0,0.069404,no
0,0,0.03125,0,0,no
0.00031,0.000109,0.15625,0.333333,0.00031,no
0.089698,0.063003,0,0,0.089698,no
0.089698,0.063003,0,0,0.089698,no
0.044926,0.063112,0.03125,0,0.089698,no
0,0,0,0,0,no
0.089698,0.063003,0,0,0.089698,no
0.089698,0.063003,0,0,0.089698,no
0.069404,0.048749,0,0,0.069404,no
0.069404,0.048749,0,0,0.069404,no
0.021998,0.007943,0,0,0.021998,no
0.00031,0.000109,0,0,0.00031,no
0,0,0,0,0,no
0,0,0,0,0,no
0.089698,0.063003,0,0,0.089698,no
0.089698,0.063003,0,0,0.089698,no
0,0,0,0,0,no
0,0,0.03125,0,0,no
0.008521,0.003047,0.03125,0,0.008211,no
0.008211,0.002938,0.0625,0,0.008211,no
0.069404,0.048749,0,0,0.069404,no
0.00426,0.003047,0,0,0.008211,no
0,0,0,0,0,no
0,0,0,0,0,no
0,0,0,0,0,no
0,0,0,0,0,no
0,0,0,0,0,no
0,0,0.03125,0,0,no
0,0,0.03125,0,0,no
0,0,0,0,0,no
0,0,0,0,0,no
0,0,0,0,0,no
0,0,0,0,0,no
0,0,0,0,0,no
0.001239,0.000871,0,0,0.001239,no
0.000775,0.000544,0,0,0.000775,no
0,0,0,0,0,no
0,0,0,0,0,no
0.00031,0.000109,0,0,0.00031,no
0,0,0,0,0,no
0,0,0.03125,0,0,no
0,0,0,0,0,no
0.00031,0.000109,0,0,0.00031,no
0.00031,0.000109,0,0,0.00031,no
0,0,0,0,0,no
0.00031,0.000109,0,0,0.00031,no
0.00031,0.000109,0.03125,0,0.00031,no
0.00031,0.000109,0.03125,0,0.00031,no
0.00062,0.000218,0.03125,0,0.00031,no
0,0,0.03125,0,0,no
0,0,0.0625,0,0,no
0,0,0.03125,0,0,no
0.00031,0.000109,0.15625,0.333333,0.00031,no
0.089698,0.063003,0,0,0.089698,no
0.089698,0.063003,0,0,0.089698,no
0.044926,0.063112,0.03125,0,0.089698,no
0,0,0,0,0,no
0.089698,0.063003,0,0,0.089698,no
0.089698,0.063003,0,0,0.089698,no
0.054067,0.037976,0,0,0.054067,no
0.054067,0.037976,0,0,0.054067,no
0.021998,0.007943,0,0,0.021998,no
0.00031,0.000109,0,0,0.00031,no
0,0,0,0,0,no
0,0,0,0,0,no
0.089698,0.063003,0,0,0.089698,no
0.089698,0.063003,0,0,0.089698,no
0,0,0,0,0,no
0,0,0.03125,0,0,no
0.008521,0.003047,0.03125,0,0.008211,no
0.008211,0.002938,0.0625,0,0.008211,no
0.054067,0.037976,0,0,0.054067,no
0.00426,0.003047,0,0,0.008211,no
0,0,0,0,0,no
0,0,0,0,0,no
0,0,0,0,0,no
0,0,0,0,0,no
0,0,0,0,0,no
0,0,0.03125,0,0,no
0,0,0.03125,0,0,no
0,0,0,0,0,no
0,0,0,0,0,no
0,0,0,0,0,no
0,0,0,0,0,no
0.054067,0.037976,0,0,0.054067,no
0.001239,0.000871,0,0,0.001239,no
0.054067,0.037976,0,0,0.054067,no
0,0,0,0,0,no
0,0,0,0,0,no
0.00031,0.000109,0,0,0.00031,no
0.054067,0.037976,0,0,0.054067,no
0.054067,0.037976,0.03125,0,0.054067,no
0,0,0,0,0,no
0.00031,0.000109,0,0,0.00031,no
0.00031,0.000109,0,0,0.00031,no
0,0,0,0,0,no
0.00031,0.000109,0,0,0.00031,no
0.00031,0.000109,0.03125,0,0.00031,no
0.00031,0.000109,0.03125,0,0.00031,no
0.00062,0.000218,0.03125,0,0.00031,no
0,0,0.03125,0,0,no
0.054067,0.037976,0.0625,0,0.054067,no
0,0,0.03125,0,0,no
0.00031,0.000109,0.15625,0.333333,0.00031,no
0.089698,0.063003,0,0,0.089698,no
0.089698,0.063003,0,0,0.089698,no
0.044926,0.063112,0.03125,0,0.089698,no
0,0,0,0,0,no
0.00031,0.000109,0,0,0.00031,no
0,0,0,0,0,no
0.00093,0.000326,0,0,0.00062,no
0.00062,0.000218,0,0,0.00062,no
0.021998,0.007943,0,0,0.021998,no
0.00031,0.000109,0,0,0.00031,no
0,0,0,0,0,no
0,0,0,0,0,no
0.00062,0.000218,0,0,0.00062,no
0.00031,0.000109,0,0,0.00031,no
0,0,0,0,0,no
0,0,0.03125,0,0,no
0.008521,0.003047,0.03125,0,0.008211,no
0.008211,0.002938,0.0625,0,0.008211,no
0.00031,0.000109,0,0,0.00031,no
0.00426,0.003047,0,0,0.008211,no
0,0,0,0,0,no
0,0,0,0,0,no
0,0,0,0,0,no
0,0,0,0,0,no
0,0,0,0,0,no
0,0,0.03125,0,0,no
0,0,0.03125,0,0,no
0,0,0,0,0,no
0,0,0,0,0,no
0,0,0,0,0,no
0,0,0,0,0,no
0,0,0,0,0,no
0.001239,0.000871,0,0,0.001239,no
0.00031,0.000109,0,0,0.00031,no
0,0,0,0,0,no
0,0,0,0,0,no
0.00031,0.000109,0,0,0.00031,no
0,0,0,0,0,no
0,0,0.03125,0,0,no
0,0,0,0,0,no
0.00031,0.000109,0,0,0.00031,no
0.00031,0.000109,0,0,0.00031,no
0,0,0,0,0,no
0.00031,0.000109,0,0,0.00031,no
0.00031,0.000109,0.03125,0,0.00031,no
0.00031,0.000109,0.03125,0,0.00031,no
0.00062,0.000218,0.03125,0,0.00031,no
0,0,0.03125,0,0,no
0.001239,0.000435,0.0625,0,0.001239,no
0,0,0.03125,0,0,no
0.00031,0.000109,0.15625,0.333333,0.00031,no
0.00062,0.000218,0,0,0.00062,no
0.001549,0.000544,0,0,0.001239,no
0.001859,0.000653,0.03125,0,0.001239,no
0.00031,0.000109,0,0,0.00031,no
0.071159,0.149946,0,0,0.123005,no
0.071159,0.149946,0,0,0.123005,no
0.106352,0.149402,0,0,0.123005,no
0.106352,0.149402,0,0,0.123005,no
0.071572,0.150816,0,0,0.123005,no
0.071572,0.150816,0,0,0.123005,no
0.106352,0.149402,0,0,0.123005,no
0.106352,0.149402,0.03125,0,0.123005,no
0.071108,0.149837,0,0,0.123005,no
0.106352,0.149402,0.03125,0,0.123005,no
0,0,0,0,0,no
0.106352,0.149402,0,0,0.123005,no
0.106352,0.149402,0,0,0.123005,no
0.089698,0.063003,0,0,0.089698,no
0.089698,0.063003,0,0,0.089698,no
0,0,0,0,0,no
0,0,0,0,0,no
0,0,0,0,0,no
0,0,0,0,0,no
0,0,0,0,0,no
0.021998,0.007943,0,0,0.021998,no
0.00031,0.000109,0,0,0.00031,no
0,0,0,0,0,no
0,0,0,0,0,no
0.071159,0.149946,0,0,0.123005,no
0.071159,0.149946,0,0,0.123005,no
0.106352,0.149402,0,0,0.123005,no
0.106352,0.149402,0,0,0.123005,no
0.071572,0.150816,0,0,0.123005,no
0.071572,0.150816,0,0,0.123005,no
0.106352,0.149402,0,0,0.123005,no
0.106352,0.149402,0.03125,0,0.123005,no
0.123005,0.086398,0.03125,0,0.123005,no
0.071108,0.149837,0,0,0.123005,no
0.106352,0.149402,0.03125,0,0.123005,no
0.123005,0.086398,0,0,0.123005,no
0.106352,0.149402,0,0,0.123005,no
0.106352,0.149402,0,0,0.123005,no
0.089698,0.063003,0,0,0.089698,no
0.089698,0.063003,0,0,0.089698,no
0.123005,0.086398,0,0,0.123005,no
0.123005,0.086398,0,0,0.123005,no
0.123005,0.086398,0,0,0.123005,no
0,0,0,0,0,no
0,0,0.03125,0,0,no
0.008521,0.003047,0.03125,0,0.008211,no
0.008211,0.002938,0.0625,0,0.008211,no
0.094345,0.132535,0,0,0.123005,no
0.00426,0.003047,0,0,0.008211,no
0,0,0,0,0,no
0,0,0,0,0,no
0,0,0,0,0,no
0,0,0,0,0,no
0,0,0,0,0,no
0,0,0.03125,0,0,no
0,0,0.03125,0,0,no
0,0,0,0,0,no
0,0,0,0,0,no
0,0,0,0,0,no
0,0,0,0,0,no
0.070217,0.19728,0,0,0.123005,no
0.001239,0.000871,0,0,0.001239,no
0.069675,0.195647,0,0,0.123005,no
0,0,0,0,0,no
0,0,0,0,0,no
0.00031,0.000109,0,0,0.00031,no
0.092796,0.195539,0,0,0.123005,no
0.092796,0.195539,0.03125,0,0.123005,no
0,0,0,0,0,no
0.00031,0.000109,0,0,0.00031,no
0.00031,0.000109,0,0,0.00031,no
0,0,0,0,0,no
0.00031,0.000109,0,0,0.00031,no
0.00031,0.000109,0.03125,0,0.00031,no
0.00031,0.000109,0.03125,0,0.00031,no
0.00062,0.000218,0.03125,0,0.00031,no
0,0,0.03125,0,0,no
0.092796,0.195539,0.28125,0.333333,0.123005,no
0,0,0.03125,0,0,no
0.00031,0.000109,0.15625,0.333333,0.00031,no
0.071159,0.149946,0,0,0.123005,no
0.071159,0.149946,0,0,0.123005,no
0.071159,0.149946,0.03125,0,0.123005,no
0.106352,0.149402,0,0,0.123005,no
0.106352,0.149402,0,0,0.123005,no
0.106352,0.149402,0,0,0.123005,no
0.106352,0.149402,0.03125,0,0.123005,no
0.106352,0.149402,0,0,0.123005,no
0.071572,0.150816,0,0,0.123005,no
0.071572,0.150816,0,0,0.123005,no
0.071572,0.150816,0,0,0.123005,no
0.071624,0.150925,0,0,0.123005,no
0.106352,0.149402,0,0,0.123005,no
0.106352,0.149402,0.03125,0,0.123005,no
0.071057,0.149728,0.03125,0,0.123005,no
0.106352,0.149402,0,0,0.123005,no
0.106352,0.149402,0,0,0.123005,no
0.071108,0.149837,0,0,0.123005,no
0.106352,0.149402,0.03125,0,0.123005,no
0.106352,0.149402,0.0625,0,0.123005,no
0.106352,0.149402,0.03125,0,0.123005,no
0.106352,0.149402,0.0625,0,0.123005,no
0.106352,0.149402,0.03125,0,0.123005,no
0.106352,0.149402,0,0,0.123005,no
0.106352,0.149402,0.03125,0,0.123005,no
0.106352,0.149402,0.03125,0,0.123005,no
0.106352,0.149402,0,0,0.123005,no
0.106352,0.149402,0,0,0.123005,no
0.106352,0.149402,0.03125,0,0.123005,no
0.089698,0.063003,0,0,0.089698,no
0.089698,0.063003,0,0,0.089698,no
0.089698,0.063003,0,0,0.089698,no
0.044926,0.063112,0.03125,0,0.089698,no
0,0,0,0,0,no
0.00093,0.000653,0,0,0.00093,no
0,0,0.03125,0,0,no
0,0,0.0625,0,0,no
0,0,0.03125,0,0,no
0.001239,0.000871,0.0625,0,0.001239,no
0.001394,0.001959,0.03125,0,0.001549,no
0,0,0,0,0,no
0,0,0.03125,0,0,no
0.000465,0.000326,0.03125,0,0.000465,no
0,0,0,0,0,no
0,0,0,0,0,no
0,0,0,0,0,no
0,0,0,0,0,no
0,0,0,0,0,no
0.021998,0.007943,0,0,0.021998,no
0.00031,0.000109,0,0,0.00031,no
0,0,0,0,0,no
0,0,0,0,0,no
0.005732,0.002176,0,0,0.005732,no
0,0,0,0,0,no
0,0,0,0,0,no
0,0,0,0,0,no
0,0,0.03125,0,0,no
0.008521,0.003047,0.03125,0,0.008211,no
0.008211,0.002938,0.0625,0,0.008211,no
0,0,0,0,0,no
0.00426,0.003047,0,0,0.008211,no
0,0,0,0,0,no
0,0,0,0,0,no
0,0,0,0,0,no
0,0,0,0,0,no
0,0,0,0,0,no
0,0,0.03125,0,0,no
0,0,0.03125,0,0,no
0,0,0,0,0,no
0,0,0,0,0,no
0,0,0,0,0,no
0,0,0,0,0,no
0.013943,0.009793,0,0,0.013943,no
0.001239,0.000871,0,0,0.001239,no
0.013943,0.009793,0,0,0.013943,no
0,0,0,0,0,no
0,0,0,0,0,no
0.00031,0.000109,0,0,0.00031,no
0.008211,0.011534,0,0,0.013943,no
0.008211,0.011534,0.03125,0,0.013943,no
0,0,0,0,0,no
0.00031,0.000109,0,0,0.00031,no
0.00031,0.000109,0,0,0.00031,no
0,0,0,0,0,no
0.00031,0.000109,0,0,0.00031,no
0.00031,0.000109,0.03125,0,0.00031,no
0.00031,0.000109,0.03125,0,0.00031,no
0.00062,0.000218,0.03125,0,0.00031,no
0,0,0.03125,0,0,no
0,0,0.0625,0,0,no
0,0,0.03125,0,0,no
0.00031,0.000109,0.15625,0.333333,0.00031,no
0,0,0,0,0,no
0,0,0.03125,0,0,no
0,0,0.0625,0,0,no
0,0,0.03125,0,0,no
0,0,0.0625,0,0,no
0,0,0.03125,0,0,no
0,0,0,0,0,no
0,0,0.03125,0,0,no
0,0,0.03125,0,0,no
0,0,0,0,0,no
0,0,0,0,0,no
0,0,0,0,0,no
0,0,0,0,0,no
0,0,0,0,0,no
0.021998,0.007943,0,0,0.021998,no
0.00031,0.000109,0,0,0.00031,no
0,0,0,0,0,no
0,0,0,0,0,no
0,0,0,0,0,no
0,0,0,0,0,no
0,0,0,0,0,no
0,0,0,0,0,no
0,0,0.03125,0,0,no
0.008521,0.003047,0.03125,0,0.008211,no
0.008211,0.002938,0.0625,0,0.008211,no
0,0,0,0,0,no
0.00426,0.003047,0,0,0.008211,no
0,0,0,0,0,no
0,0,0,0,0,no
0,0,0,0,0,no
0,0,0,0,0,no
0,0,0,0,0,no
0,0,0.03125,0,0,no
0,0,0.03125,0,0,no
0,0,0,0,0,no
0,0,0,0,0,no
0,0,0,0,0,no
0,0,0,0,0,no
0,0,0,0,0,no
0.001239,0.000871,0,0,0.001239,no
0,0,0,0,0,no
0,0,0,0,0,no
0,0,0,0,0,no
0.00031,0.000109,0,0,0.00031,no
0,0,0,0,0,no
0,0,0.03125,0,0,no
0,0,0,0,0,no
0.00031,0.000109,0,0,0.00031,no
0.00031,0.000109,0,0,0.00031,no
0,0,0,0,0,no
0.00031,0.000109,0,0,0.00031,no
0.00031,0.000109,0.03125,0,0.00031,no
0.00031,0.000109,0.03125,0,0.00031,no
0.00062,0.000218,0.03125,0,0.00031,no
0,0,0.03125,0,0,no
0,0,0.0625,0,0,no
0,0,0.03125,0,0,no
0.00031,0.000109,0.15625,0.333333,0.00031,no
0,0,0,0,0,no
0,0,0.03125,0,0,no
0,0,0.0625,0,0,no
0,0,0.03125,0,0,no
0,0,0.0625,0,0,no
0,0,0.03125,0,0,no
0,0,0,0,0,no
0,0,0.03125,0,0,no
0,0,0.03125,0,0,no
0,0,0,0,0,no
0,0,0,0,0,no
0,0,0,0,0,no
0.000775,0.000544,0,0,0.000775,no
0.000775,0.000544,0,0,0.000775,no
0.000775,0.000544,0,0,0.000775,no
0,0,0,0,0,no
0,0,0,0,0,no
0,0,0,0,0,no
0,0,0,0,0,no
0,0,0,0,0,no
0.021998,0.007943,0,0,0.021998,no
0.00031,0.000109,0,0,0.00031,no
0,0,0,0,0,no
0,0,0,0,0,no
0,0,0,0,0,no
0,0,0,0,0,no
0,0,0,0,0,no
0,0,0,0,0,no
0,0,0,0,0,no
0.002014,0.001415,0,0,0.002014,no
0.002014,0.001415,0,0,0.002014,no
0.002014,0.001415,0,0,0.002014,no
0.002014,0.001415,0,0,0.002014,no
0,0,0,0,0,no
0,0,0.03125,0,0,no
0.008521,0.003047,0.03125,0,0.008211,no
0.008211,0.002938,0.0625,0,0.008211,no
0,0,0,0,0,no
0.00426,0.003047,0,0,0.008211,no
0,0,0,0,0,no
0,0,0,0,0,no
0,0,0,0,0,no
0,0,0,0,0,no
0,0,0,0,0,no
0,0,0.03125,0,0,no
0,0,0.03125,0,0,no
0,0,0,0,0,no
0,0,0,0,0,no
0,0,0,0,0,no
0,0,0,0,0,no
0,0,0,0,0,no
0.001239,0.000871,0,0,0.001239,no
0,0,0,0,0,no
0,0,0,0,0,no
0,0,0,0,0,no
0.00031,0.000109,0,0,0.00031,no
0,0,0,0,0,no
0.000155,0.000109,0.03125,0,0.000155,no
0,0,0,0,0,no
0.00031,0.000109,0,0,0.00031,no
0.00031,0.000109,0,0,0.00031,no
0,0,0,0,0,no
0.00031,0.000109,0,0,0.00031,no
0.00031,0.000109,0.03125,0,0.00031,no
0.00031,0.000109,0.03125,0,0.00031,no
0.00062,0.000218,0.03125,0,0.00031,no
0,0,0.03125,0,0,no
0.000465,0.000326,0.125,0,0.000465,no
0,0,0.03125,0,0,no
0.00031,0.000109,0.15625,0.333333,0.00031,no
0,0,0,0,0,no
0,0,0.03125,0,0,no
0,0,0.0625,0,0,no
0,0,0.03125,0,0,no
0,0,0.0625,0,0,no
0,0,0.03125,0,0,no
0,0,0,0,0,no
0,0,0.03125,0,0,no
0,0,0.03125,0,0,no
0,0,0,0,0,no
0,0,0.03125,0,0,no
0,0,0.0625,0,0,no
0,0,0.03125,0,0,no
0,0,0.0625,0,0,no
0,0,0.03125,0,0,no
0,0,0,0,0,no
0,0,0.03125,0,0,no
0.013943,0.009793,0.03125,0,0.013943,no
0.013943,0.009793,0,0,0.013943,no
0.013943,0.009793,0.03125,0,0.013943,no
0.013943,0.009793,0.0625,0,0.013943,no
0.013943,0.009793,0.03125,0,0.013943,no
0.013943,0.009793,0.0625,0,0.013943,no
0.013943,0.009793,0.03125,0,0.013943,no
0.013943,0.009793,0,0,0.013943,no
0.013943,0.009793,0.03125,0,0.013943,no
0.013943,0.009793,0.03125,0,0.013943,no
0,0,0,0,0,no
0,0,0.03125,0,0,no
0,0,0,0,0,no
0,0,0,0,0,no
0,0,0,0,0,no
0,0,0,0,0,no
0,0,0,0,0,no
0.021998,0.007943,0,0,0.021998,no
0.00031,0.000109,0,0,0.00031,no
0,0,0,0,0,no
0,0,0,0,0,no
0,0,0,0,0,no
0,0,0.03125,0,0,no
0,0,0,0,0,no
0,0,0,0,0,no
0,0,0,0,0,no
0,0,0,0,0,no
0,0,0.03125,0,0,no
0.008521,0.003047,0.03125,0,0.008211,no
0.008211,0.002938,0.0625,0,0.008211,no
0,0,0,0,0,no
0.00426,0.003047,0,0,0.008211,no
0,0,0,0,0,no
0,0,0,0,0,no
0,0,0,0,0,no
0,0,0,0,0,no
0,0,0,0,0,no
0,0,0.03125,0,0,no
0,0,0.03125,0,0,no
0,0,0,0,0,no
0,0,0,0,0,no
0,0,0,0,0,no
0,0,0,0,0,no
0,0,0,0,0,no
0.001239,0.000871,0,0,0.001239,no
0,0,0,0,0,no
0,0,0,0,0,no
0,0,0,0,0,no
0.00031,0.000109,0,0,0.00031,no
0,0,0,0,0,no
0,0,0.03125,0,0,no
0,0,0,0,0,no
0.00031,0.000109,0,0,0.00031,no
0.00031,0.000109,0,0,0.00031,no
0,0,0,0,0,no
0.00031,0.000109,0,0,0.00031,no
0.00031,0.000109,0.03125,0,0.00031,no
0.00031,0.000109,0.03125,0,0.00031,no
0.00062,0.000218,0.03125,0,0.00031,no
0,0,0.03125,0,0,no
0,0,0.09375,0,0,no
0,0,0.03125,0,0,no
0.00031,0.000109,0.15625,0.333333,0.00031,no
0,0,0,0,0,no
0,0,0.03125,0,0,no
0,0,0.0625,0,0,no
0,0,0.03125,0,0,no
0,0,0.0625,0,0,no
0,0,0.03125,0,0,no
0,0,0,0,0,no
0,0,0.03125,0,0,no
0,0,0.03125,0,0,no
0,0,0,0,0,no
0,0,0,0,0,no
0,0,0,0,0,no
0,0,0,0,0,no
0,0,0,0,0,no
0,0,0,0,0,no
0,0,0,0,0,no
0,0,0,0,0,no
0,0,0,0,0,no
0,0,0,0,0,no
0,0,0,0,0,no
0,0,0,0,0,no
0.021998,0.007943,0,0,0.021998,no
0.00031,0.000109,0,0,0.00031,no
0,0,0,0,0,no
0,0,0,0,0,no
0,0,0,0,0,no
0,0,0,0,0,no
0,0,0,0,0,no
0,0,0,0,0,no
0,0,0,0,0,no
0,0,0,0,0,no
0,0,0,0,0,no
0,0,0.03125,0,0,no
0.008521,0.003047,0.03125,0,0.008211,no
0.008211,0.002938,0.0625,0,0.008211,no
0.001549,0.001088,0,0,0.001549,no
0.00426,0.003047,0,0,0.008211,no
0,0,0,0,0,no
0,0,0,0,0,no
0,0,0,0,0,no
0,0,0,0,0,no
0,0,0,0,0,no
0,0,0.03125,0,0,no
0,0,0.03125,0,0,no
0,0,0,0,0,no
0,0,0,0,0,no
0,0,0,0,0,no
0,0,0,0,0,no
0,0,0,0,0,no
0.001239,0.000871,0,0,0.001239,no
0.00062,0.000871,0,0,0.000775,no
0,0,0,0,0,no
0,0,0,0,0,no
0.00031,0.000109,0,0,0.00031,no
0,0,0,0,0,no
0,0,0.03125,0,0,no
0,0,0,0,0,no
0.00031,0.000109,0,0,0.00031,no
0.00031,0.000109,0,0,0.00031,no
0,0,0,0,0,no
0.00031,0.000109,0,0,0.00031,no
0.00031,0.000109,0.03125,0,0.00031,no
0.00031,0.000109,0.03125,0,0.00031,no
0.00062,0.000218,0.03125,0,0.00031,no
0,0,0.03125,0,0,no
0.019985,0.00827,0.09375,0,0.017196,no
0,0,0.03125,0,0,no
0.00031,0.000109,0.15625,0.333333,0.00031,no
0.00031,0.000109,0,0,0.00031,no
0.00062,0.000218,0.03125,0,0.00031,no
0.00062,0.000653,0.0625,0,0.00062,no
0.00062,0.000218,0.03125,0,0.00031,no
0.000542,0.000544,0.0625,0,0.000465,no
0.00031,0.000109,0.03125,0,0.00031,no
0.00031,0.000109,0,0,0.00031,no
0,0,0.03125,0,0,no
0.001549,0.000979,0.03125,0,0.001239,no
0,0,0,0,0,no
0.000542,0.000653,0.03125,0,0.000775,no
0.000697,0.000762,0.0625,0,0.000775,no
0.00031,0.000109,0.03125,0,0.00031,no
0,0,0.0625,0,0,no
0,0,0.03125,0,0,no
0,0,0,0,0,no
0,0,0.03125,0,0,no
0,0,0.03125,0,0,no
0,0,0,0,0,no
0,0,0,0,0,no
0,0,0,0,0,no
0,0,0.03125,0,0,no
0,0,0,0,0,no
0,0,0,0,0,no
0,0,0,0,0,no
0,0,0,0,0,no
0,0,0,0,0,no
0.021998,0.007943,0,0,0.021998,no
0.00031,0.000109,0,0,0.00031,no
0,0,0,0,0,no
0,0,0,0,0,no
0,0,0,0,0,no
0,0,0,0,0,no
0,0,0,0,0,no
0,0,0.03125,0,0,no
0,0,0,0,0,no
0,0,0,0,0,no
0,0,0,0,0,no
0,0,0,0,0,no
0,0,0.03125,0,0,no
0.008521,0.003047,0.03125,0,0.008211,no
0.008211,0.002938,0.0625,0,0.008211,no
0,0,0,0,0,no
0.00426,0.003047,0,0,0.008211,no
0,0,0,0,0,no
0,0,0,0,0,no
0,0,0,0,0,no
0,0,0,0,0,no
0,0,0,0,0,no
0,0,0.03125,0,0,no
0,0,0.03125,0,0,no
0,0,0,0,0,no
0,0,0,0,0,no
0,0,0,0,0,no
0,0,0,0,0,no
0,0,0,0,0,no
0.001239,0.000871,0,0,0.001239,no
0,0,0,0,0,no
0,0,0,0,0,no
0,0,0,0,0,no
0.00031,0.000109,0,0,0.00031,no
0,0,0,0,0,no
0,0,0.03125,0,0,no
0,0,0,0,0,no
0.00031,0.000109,0,0,0.00031,no
0.00031,0.000109,0,0,0.00031,no
0,0,0,0,0,no
0.00031,0.000109,0,0,0.00031,no
0.00031,0.000109,0.03125,0,0.00031,no
0.00031,0.000109,0.03125,0,0.00031,no
0.00062,0.000218,0.03125,0,0.00031,no
0,0,0.03125,0,0,no
0,0,0.125,0,0,no
0,0,0.03125,0,0,no
0.00031,0.000109,0.15625,0.333333,0.00031,no
0,0,0,0,0,no
0,0,0,0,0,no
0,0,0,0,0,no
0,0,0,0,0,no
0,0,0,0,0,no
0,0,0.03125,0,0,no
0,0,0.0625,0,0,no
0,0,0.03125,0,0,no
0,0,0.0625,0,0,no
0,0,0.03125,0,0,no
0,0,0,0,0,no
0,0,0.03125,0,0,no
0.024632,0.008923,0.03125,0,0.024632,no
0.024632,0.008923,0,0,0.024632,no
0.024632,0.008923,0,0,0.024632,no
0.024632,0.008923,0,0,0.024632,no
0.024632,0.008923,0,0,0.024632,no
0,0,0.03125,0,0,no
0,0,0.03125,0,0,no
0,0,0.03125,0,0,no
0.024632,0.008923,0,0,0.024632,no
0.024632,0.008923,0,0,0.024632,no
0.024632,0.008923,0,0,0.024632,no
0.024632,0.008923,0,0,0.024632,no
0.021998,0.007943,0,0,0.021998,no
0.00031,0.000109,0,0,0.00031,no
0,0,0,0,0,no
0,0,0,0,0,no
0,0,0.03125,0,0,no
0,0,0,0,0,no
0,0,0.03125,0,0,no
0,0,0.03125,0,0,no
0,0,0,0,0,no
0,0,0,0,0,no
0,0,0.03125,0,0,no
0.008521,0.003047,0.03125,0,0.008211,no
0.008211,0.002938,0.0625,0,0.008211,no
0.00031,0.000109,0,0,0.00031,no
0.00426,0.003047,0,0,0.008211,no
0,0,0,0,0,no
0,0,0,0,0,no
0,0,0,0,0,no
0,0,0,0,0,no
0,0,0,0,0,no
0,0,0.03125,0,0,no
0,0,0.03125,0,0,no
0,0,0,0,0,no
0,0,0,0,0,no
0,0,0,0,0,no
0,0,0,0,0,no
0.00031,0.000109,0,0,0.00031,no
0.001239,0.000871,0,0,0.001239,no
0.00031,0.000109,0,0,0.00031,no
0,0,0,0,0,no
0,0,0,0,0,no
0.00031,0.000109,0,0,0.00031,no
0,0,0,0,0,no
0.00031,0.000109,0.03125,0,0.00031,no
0,0,0,0,0,no
0.00031,0.000109,0,0,0.00031,no
0.00031,0.000109,0,0,0.00031,no
0,0,0,0,0,no
0.00031,0.000109,0,0,0.00031,no
0.00031,0.000109,0.03125,0,0.00031,no
0.00031,0.000109,0.03125,0,0.00031,no
0.00062,0.000218,0.03125,0,0.00031,no
0,0,0.03125,0,0,no
0,0,0.21875,0.333333,0,no
0,0,0.03125,0,0,no
0.00031,0.000109,0.15625,0.333333,0.00031,no
0,0,0.03125,0,0,no
0,0,0.03125,0,0,no
0,0,0.03125,0,0,no
0,0,0.03125,0,0,no
0,0,0.0625,0,0,no
0,0,0.03125,0,0,no
0,0,0.0625,0,0,no
0,0,0.0625,0,0,no
0,0,0.03125,0,0,no
0,0,0.03125,0,0,no
0.000775,0.000544,0.03125,0,0.000775,no
0,0,0.03125,0,0,no
0,0,0.03125,0,0,no
0,0,0,0,0,no
0,0,0.03125,0,0,no
0,0,0.03125,0,0,no
0,0,0,0,0,no
0,0,0,0,0,no
0,0,0,0,0,no
0,0,0.03125,0,0,no
0,0,0,0,0,no
0,0,0,0,0,no
0,0,0,0,0,no
0,0,0,0,0,no
0,0,0,0,0,no
0,0,0,0,0,no
0.021998,0.007943,0,0,0.021998,no
0.00031,0.000109,0,0,0.00031,no
0,0,0,0,0,no
0,0,0,0,0,no
0.01038,0.003808,0,0,0.01038,no
0.01038,0.003808,0.0625,0,0.01038,no
0,0,0.03125,0,0,no
0,0,0,0,0,no
0,0,0,0,0,no
0,0,0,0,0,no
0,0,0.03125,0,0,no
0.008521,0.003047,0.03125,0,0.008211,no
0.008211,0.002938,0.0625,0,0.008211,no
0,0,0,0,0,no
0.00426,0.003047,0,0,0.008211,no
0,0,0,0,0,no
0,0,0,0,0,no
0,0,0,0,0,no
0,0,0,0,0,no
0,0,0,0,0,no
0,0,0.03125,0,0,no
0,0,0.03125,0,0,no
0,0,0,0,0,no
0,0,0,0,0,no
0,0,0,0,0,no
0,0,0,0,0,no
0,0,0,0,0,no
0.001239,0.000871,0,0,0.001239,no
0.00031,0.000109,0,0,0.00031,no
0,0,0,0,0,no
0,0,0,0,0,no
0.00031,0.000109,0,0,0.00031,no
0.00031,0.000109,0,0,0.00031,no
0.017661,0.00642,0.03125,0,0.017661,no
0,0,0,0,0,no
0.00031,0.000109,0,0,0.00031,no
0.00031,0.000109,0,0,0.00031,no
0,0,0,0,0,no
0.00031,0.000109,0,0,0.00031,no
0.00031,0.000109,0.03125,0,0.00031,no
0.00031,0.000109,0.03125,0,0.00031,no
0.00062,0.000218,0.03125,0,0.00031,no
0,0,0.03125,0,0,no
0,0,0.09375,0,0,no
0,0,0.03125,0,0,no
0.00031,0.000109,0.15625,0.333333,0.00031,no
0.021146,0.014908,0,0,0.021224,no
0.014304,0.015125,0.03125,0,0.021224,no
0.021146,0.014908,0.03125,0,0.021224,no
0.021146,0.014908,0,0,0.021224,no
0.021146,0.014908,0,0,0.021224,no
0,0,0,0,0,no
0,0,0,0,0,no
0,0,0,0,0,no
0,0,0,0,0,no
0,0,0,0,0,no
0,0,0,0,0,no
0,0,0,0,0,no
0,0,0,0,0,no
0,0,0,0,0,no
0,0,0,0,0,no
0.021998,0.007943,0,0,0.021998,no
0.00031,0.000109,0,0,0.00031,no
0,0,0,0,0,no
0,0,0,0,0,no
0.00031,0.000218,0,0,0.00031,no
0,0,0.0625,0,0,no
0.00031,0.000218,0.03125,0,0.00031,no
0,0,0,0,0,no
0,0,0,0,0,no
0,0,0,0,0,no
0,0,0.03125,0,0,no
0.008521,0.003047,0.03125,0,0.008211,no
0.008211,0.002938,0.0625,0,0.008211,no
0,0,0,0,0,no
0.00426,0.003047,0,0,0.008211,no
0,0,0,0,0,no
0,0,0,0,0,no
0,0,0,0,0,no
0,0,0,0,0,no
0,0,0,0,0,no
0,0,0.03125,0,0,no
0,0,0.03125,0,0,no
0,0,0,0,0,no
0,0,0,0,0,no
0,0,0,0,0,no
0,0,0,0,0,no
0,0,0,0,0,no
0.001239,0.000871,0,0,0.001239,no
0,0,0,0,0,no
0,0,0,0,0,no
0,0,0,0,0,no
0.00031,0.000109,0,0,0.00031,no
0,0,0,0,0,no
0,0,0.03125,0,0,no
0,0,0,0,0,no
0.00031,0.000109,0,0,0.00031,no
0.00031,0.000109,0,0,0.00031,no
0,0,0,0,0,no
0.00031,0.000109,0,0,0.00031,no
0.00031,0.000109,0.03125,0,0.00031,no
0.00031,0.000109,0.03125,0,0.00031,no
0.00062,0.000218,0.03125,0,0.00031,no
0,0,0.03125,0,0,no
0.000775,0.000544,0.09375,0,0.000775,no
0,0,0.03125,0,0,no
0.00031,0.000109,0.15625,0.333333,0.00031,no
0,0,0,0,0,no
0,0,0.03125,0,0,no
0.00031,0.000109,0.03125,0,0.00031,no
0,0,0,0,0,no
0.021998,0.007943,0,0,0.021998,no
0.021998,0.007943,0,0,0.021998,no
0.021998,0.007943,0,0,0.021998,no
0.021998,0.007943,0,0,0.021998,no
0.021998,0.007943,0,0,0.021998,no
0.021998,0.007943,0,0,0.021998,no
0.021998,0.007943,0,0,0.021998,no
0.021998,0.007943,0,0,0.021998,no
0.021998,0.007943,0,0,0.021998,no
0.021998,0.007943,0,0,0.021998,no
0.00031,0.000109,0,0,0.00031,no
0,0,0,0,0,no
0,0,0,0,0,no
0,0,0,0,0,no
0,0,0,0,0,no
0,0,0,0,0,no
0,0,0.03125,0,0,no
0.008521,0.003047,0.03125,0,0.008211,no
0.008211,0.002938,0.0625,0,0.008211,no
0.008211,0.002938,0,0,0.008211,no
0.00426,0.003047,0,0,0.008211,no
0,0,0,0,0,no
0,0,0,0,0,no
0,0,0,0,0,no
0,0,0,0,0,no
0,0,0,0,0,no
0,0,0.03125,0,0,no
0,0,0.03125,0,0,no
0,0,0,0,0,no
0,0,0,0,0,no
0,0,0,0,0,no
0,0,0,0,0,no
0.00031,0.000109,0,0,0.00031,no
0.001239,0.000871,0,0,0.001239,no
0.001239,0.000871,0,0,0.001239,no
0,0,0,0,0,no
0,0,0,0,0,no
0.00031,0.000109,0,0,0.00031,no
0,0,0,0,0,no
0.00031,0.000109,0.03125,0,0.00031,no
0,0,0,0,0,no
0.00031,0.000109,0,0,0.00031,no
0.00031,0.000109,0,0,0.00031,no
0,0,0,0,0,no
0.00031,0.000109,0,0,0.00031,no
0.00031,0.000109,0.03125,0,0.00031,no
0.00031,0.000109,0.03125,0,0.00031,no
0.00062,0.000218,0.03125,0,0.00031,no
0,0,0.03125,0,0,no
0,0,0.0625,0,0,no
0,0,0.03125,0,0,no
0.00031,0.000109,0.15625,0.333333,0.00031,no
0,0,0,0,0,no
0,0,0,0,0,no
0,0,0,0,0,no
0,0,0,0,0,no
0,0,0,0,0,no
0.008056,0.003264,0,0.333333,0.001549,no
0,0,0.0625,0,0,no
0,0,0.0625,0,0,no
0,0,0,0,0,no
0,0,0,0,0,no
0,0,0,0,0,no
0,0,0.125,0.333333,0,no
0,0,0,0,0,no
0,0,0,0,0,no
0.00031,0.000109,0.125,0,0.00031,no
0,0,0.0625,0.333333,0,no
0,0,0,0,0,no
0.000775,0.000544,0,0,0.000775,no
0.000775,0.000544,0,0,0.000775,no
0,0,0,0,0,no
0.002169,0.001523,0,0,0.002169,no
0.003563,0.002503,0.03125,0,0.003563,no
0.003563,0.002503,0.0625,0,0.003563,no
0,0,0,0,0,no
0.002479,0.001741,0.0625,0,0.002479,no
0,0,0,0,0,no
0.001239,0.000871,0.03125,0,0.001239,no
0.00488,0.006638,0.03125,0,0.00914,no
0.00914,0.00642,0,0,0.00914,no
0.00914,0.00642,0,0,0.00914,no
0.00914,0.00642,0.0625,0,0.00914,no
0.00914,0.00642,0,0,0.00914,no
0.00914,0.00642,0,0,0.00914,no
0.004725,0.006529,0,0,0.00914,no
0.001549,0.001415,0.03125,0.333333,0.001549,no
0.000775,0.000871,0,0,0.00093,no
0,0,0,0,0,no
0,0,0,0,0,no
0,0,0,0,0,no
0.001394,0.000979,0,0,0.001394,no
0,0,0,0,0,no
0,0,0,0,0,no
0.004338,0.00272,0.0625,0.333333,0.004338,no
0.004338,0.00272,0.03125,0,0.004338,no
0.004338,0.00272,0,0,0.004338,no
0.001394,0.000653,0.09375,0.333333,0.00062,no
0,0,0,0,0,no
0.00395,0.003264,0.0625,0.333333,0.004338,no
0.004338,0.001741,0.03125,0,0.004338,no
0.001782,0.001523,0,0,0.002479,no
0.002324,0.000979,0,0,0.002324,no
0.006301,0.007399,0.375,0.666667,0.004802,no
0.002014,0.001306,0.03125,0,0.001704,no
0,0,0,0,0,no
0.002685,0.0037,0.03125,0.333333,0.001859,no
0.001317,0.001523,0,0,0.001704,no
0.001239,0.000435,0,0,0.00093,no
0.004338,0.001959,0.0625,0.333333,0.003408,no
0.004338,0.001959,0.03125,0,0.003408,no
0,0,0,0,0,no
0.002479,0.001741,0,0,0.002479,no
0,0,0,0,0,no
0,0,0,0,0,no
0,0,0,0,0,no
0,0,0,0,0,no
0,0,0,0,0,no
0,0,0,0,0,no
0,0,0,0,0,no
0.000155,0.000109,0.03125,0.333333,0.000155,no
0,0,0,0,0,no
0,0,0.0625,0,0,no
0.003873,0.00272,0.09375,0,0.003873,no
0.003873,0.00272,0.09375,0,0.003873,no
0.003873,0.00272,0.09375,0,0.003873,no
0.003873,0.00272,0.09375,0,0.003873,no
0.003873,0.00272,0.09375,0,0.003873,no
0.003873,0.00272,0.09375,0,0.003873,no
0.003873,0.00272,0.09375,0,0.003873,no
0,0,0.03125,0.333333,0,no
0.001394,0.000979,0,0,0.001394,no
0.003873,0.00272,0.09375,0,0.003873,no
0.003873,0.00272,0.09375,0,0.003873,no
0.003873,0.00272,0.09375,0,0.003873,no
0.003873,0.00272,0.09375,0,0.003873,no
0.003873,0.00272,0.09375,0,0.003873,no
0.003873,0.00272,0.09375,0,0.003873,no
0.003873,0.00272,0.09375,0,0.003873,no
0,0,0.03125,0.333333,0,no
0.003873,0.00272,0.09375,0,0.003873,no
0.003873,0.00272,0.09375,0,0.003873,no
0.002634,0.001741,0,0,0.002634,no
0.002943,0.001959,0.125,0.333333,0.002634,no
0.003873,0.00272,0.09375,0,0.003873,no
0,0,0.03125,0,0,no
0.001936,0.000979,0.0625,0,0.002324,no
0,0,0.03125,0,0,no
0.003873,0.00272,0.09375,0,0.003873,no
0.000155,0.000109,0,0.333333,0.000155,no
0,0,0,0,0,no
0,0,0,0,0,no
0,0,0,0,0,no
0,0,0,0,0,no
0,0,0,0,0,no
0,0,0,0,0,no
0,0,0,0,0,no
0.000155,0.000109,0.125,0.333333,0.000155,no
0,0,0.03125,0,0,no
0,0,0.03125,0,0,no
0,0,0.03125,0,0,no
0.001136,0.002176,0.21875,0.333333,0.002634,no
0,0,0,0,0,no
0,0,0,0,0,no
0.000465,0.000218,0.09375,0,0.00062,no
0,0,0,0,0,no
0,0,0.03125,0,0,no
0.012393,0.005005,0.21875,0.333333,0.015957,no
0.002014,0.002829,0.1875,0.333333,0.002789,no
0,0,0,0,0,no
0,0,0,0,0,no
0,0,0.09375,0.333333,0,no
0,0,0.03125,0,0,no
0.001084,0.000544,0.125,0,0.00093,no
0,0,0,0,0,no
0,0,0,0,0,no
0,0,0.03125,0,0,no
0.002789,0.000109,0.03125,0,0.002789,no
0,0,0.09375,0,0,no
0.001239,0.000435,0.125,0,0.00093,no
0.001239,0.000435,0.21875,0.333333,0.00093,no
0.002943,0.001197,0.375,0.666667,0.001084,no
0,0,0.15625,0.333333,0,no
0,0,0.03125,0,0,no
0,0,0,0,0,no
0,0,0.03125,0,0,no
0,0,0.03125,0,0,no
0,0,0.15625,0.333333,0,no
0.004648,0.001632,0,0,0.004648,no
0.004648,0.001632,0,0,0.004648,no
0.004648,0.001632,0,0,0.004648,no
0.001859,0.001306,0.09375,0,0.00093,no
0.002324,0.001632,0.03125,0,0.001549,no
0.001859,0.000653,0,0,0.001239,no
0.001549,0.001088,0,0,0.001859,no
0.002479,0.002612,0.03125,0.333333,0.002169,no
0.001549,0.000544,0,0.333333,0.00093,no
0.00093,0.000326,0,0,0.00093,no
0,0,0,0,0,no
0.001239,0.000435,0.03125,0,0.00062,no
0.002943,0.002067,0.03125,0.333333,0.001239,no
0.001859,0.000653,0,0,0.00093,no
0.00062,0.000435,0,0,0.00093,no
0,0,0,0,0,no
0.003408,0.001197,0,0,0.001239,no
0.002789,0.000979,0,0,0.002789,no
0.006197,0.002176,0.03125,0.333333,0.002169,no
0.001239,0.000435,0,0,0.001239,no
0,0,0,0,0,no
0,0,0,0,0,no
0,0,0,0,0,no
0,0,0,0,0,no
0,0,0,0,0,no
0,0,0.03125,0,0,no
0,0,0.03125,0,0,no
0.000775,0.000544,0.03125,0,0.000775,no
0.000775,0.000544,0,0,0.000775,no
0.00093,0.000653,0,0,0.00093,no
0.001317,0.001741,0,0,0.001704,no
0.001136,0.002176,0,0,0.001704,no
0.000775,0.000544,0,0,0.000775,yes
0.000775,0.000544,0,0,0.000775,no
0,0,0,0,0,no
0,0,0,0,0,no
0,0,0,0,0,no
0,0,0,0,0,no
0.000775,0.000544,0,0,0.000775,no
0.000775,0.000544,0,0,0.000775,no
0.001084,0.000762,0,0,0.001084,no
0.00093,0.001306,0.03125,0,0.001084,no
0.000852,0.001088,0.03125,0,0.00093,no
0,0,0,0,0,no
0.001317,0.001306,0,0,0.001549,no
0.001704,0.001197,0,0,0.001704,no
0.001007,0.001306,0.03125,0,0.001704,no
0.004183,0.002938,0,0,0.004183,no
0.002556,0.007182,0,0,0.004183,no
0.003304,0.006964,0.0625,0,0.004183,no
0,0,0,0,0,no
0.001084,0.000762,0,0,0.001084,no
0.001084,0.000653,0,0,0.001084,no
0.001394,0.000979,0,0,0.001394,no
0.001549,0.000762,0,0,0.001549,no
0.001549,0.000762,0,0,0.001549,no
0.001549,0.000762,0,0,0.001549,no
0.001859,0.000979,0,0,0.001859,no
0,0,0,0,0,no
0,0,0,0,0,no
0,0,0.03125,0,0,no
0,0,0.03125,0,0,no
0,0,0,0,0,no
0,0,0.15625,0.333333,0,yes
0,0,0,0,0,no
0,0,0,0,0,no
0.002789,0.001959,0,0,0.002789,no
0.002789,0.001959,0,0,0.002789,no
0,0,0,0,0,no
0,0,0,0,0,no
0.00031,0.000218,0,0,0.00031,no
0,0,0,0,0,no
0,0,0,0,0,no
0,0,0,0,0,no
0,0,0,0,0,no
0,0,0,0,0,no
0,0,0,0,0,no
0,0,0,0,0,no
0,0,0.0625,0,0,no
0,0,0.0625,0,0,no
0,0,0,0,0,no
0,0,0,0,0,no
0,0,0,0,0,no
0,0,0,0,0,no
0,0,0,0,0,no
0,0,0,0,0,no
0,0,0,0,0,no
0,0,0.0625,0,0,no
0,0,0.03125,0,0,no
0.00062,0.000435,0,0,0.00062,no
0.000775,0.000544,0,0,0.000775,no
0,0,0,0,0,no
0,0,0,0,0,no
0,0,0,0,0,no
0,0,0,0,0,no
0,0,0,0,0,no
0.000569,0.000762,0,0,0.001084,no
0.000465,0.000218,0,0.333333,0.000465,no
0,0,0,0.333333,0,no
0,0,0,0,0,no
0,0,0,0,0,no
0.001394,0.000979,0,0,0.001394,no
0.001394,0.000871,0,0,0.001394,no
0,0,0,0,0,yes
0.00031,0.000109,0.0625,0,0.00031,no
0.000991,0.003156,0.03125,0,0.003253,no
0.001782,0.002394,0,0,0.003253,yes
0.001755,0.003264,0,0,0.003253,no
0.000465,0.000544,0,0,0.00062,no
0.000697,0.000653,0.03125,0,0.001084,no
0.002634,0.003482,0,0.333333,0.004338,yes
0.002995,0.003264,0,0.333333,0.004338,no
0.00031,0.000109,0.03125,0,0.00031,no
0.000465,0.000544,0.0625,0,0.00062,no
0,0,0,0,0,yes
0,0,0.03125,0,0,yes
0,0,0,0,0,no
0.000496,0.001197,0.125,0.333333,0.000775,no
0.00062,0.000435,0,0,0.00062,yes
0.000465,0.000653,0.0625,0,0.00062,no
0.000878,0.001415,0.125,0.333333,0.001084,no
0.001445,0.001741,0.03125,0,0.001549,no
0.00093,0.001523,0,0,0.001549,no
0.001947,0.008923,0.0625,0.666667,0.005887,no
0.002866,0.007291,0.09375,0.333333,0.005887,no
0.002014,0.001523,0.0625,0.333333,0.002943,yes
0,0,0,0,0,yes
0.00031,0.000109,0,0,0.00031,yes
0.001239,0.000435,0,0,0.001239,no
0.001084,0.000544,0,0,0.001239,no
0.00031,0.000109,0,0,0.00031,no
0.00031,0.000109,0,0,0.00031,no
0,0,0,0,0,no
0.00129,0.001632,0.125,0.333333,0.001239,yes
0,0,0,0,0,yes
0.00031,0.000109,0.0625,0,0.00031,no
0.001084,0.000544,0,0,0.001084,no
0.002324,0.002394,0.0625,0.333333,0.003563,no
0,0,0,0,0,no
0.003176,0.004026,0,0,0.005112,no
0.002324,0.004679,0.0625,0.333333,0.005112,yes
0.00031,0.000218,0.03125,0,0.00031,yes
0,0,0,0,0,yes
0.002014,0.001523,0.0625,0.333333,0.002943,yes
0.00031,0.000109,0,0,0.00031,no
0.00031,0.000109,0,0,0.00031,yes
0,0,0,0,0,yes
0,0,0,0,0,yes
0.00062,0.000871,0,0,0.00093,no
0.000775,0.000435,0,0.333333,0.000775,no
0,0,0,0,0,yes
0.003718,0.002612,0,0,0.003718,no
0,0,0,0,0,no
0,0,0,0,0,yes
0,0,0,0,0,yes
0,0,0,0,0,no
0,0,0,0,0,no
0,0,0,0,0,no
0,0,0,0,0,no
0.002479,0.00185,0.03125,0.333333,0.003098,no
0.002401,0.001741,0,0,0.003098,no
0.001627,0.001197,0.03125,0,0.003098,no
0,0,0,0,0,no
0,0,0,0,0,no
0,0,0,0.333333,0,no
0,0,0.03125,0.333333,0,no
0,0,0,0.333333,0,no
0,0,0,0,0,no
0,0,0,0,0,no
0,0,0,0,0,no
0.000155,0.000109,0,0,0.000155,no
0.00031,0.000218,0,0,0.00031,no
0.000232,0.000218,0.03125,0,0.00031,no
0,0,0,0,0,no
0,0,0,0,0,no
0.000775,0.000218,0,0,0.000775,no
0.00031,0.000109,0,0,0.00031,no
0,0,0,0,0,no
0.00031,0.000109,0,0,0.00031,no
0,0,0,0,0,no
0.000155,0.000109,0,0,0.000155,no
0.001394,0.002176,0.03125,0.333333,0.001549,no
0.000852,0.000653,0,0,0.001549,no
0.000361,0.000435,0,0,0.00062,no
0.001704,0.001197,0.03125,0,0.001704,no
0.001704,0.001959,0,0.333333,0.002789,no
0.004149,0.018172,0.25,0.333333,0.009915,no
0.005422,0.007291,0,0,0.006662,no
0.003873,0.016975,0.1875,0.333333,0.009915,no
0.003641,0.009358,0,0,0.006662,no
0.005422,0.007291,0,0,0.006662,no
0.001549,0.000871,0,0,0.001549,no
0.00062,0.000218,0.03125,0,0.00031,no
0.001549,0.001088,0,0,0.001549,no
0.001007,0.001197,0,0,0.001084,no
0.001084,0.000762,0.03125,0,0.001084,no
0.000465,0.000326,0.03125,0.333333,0.000465,no
0.00062,0.000326,0,0,0.00062,no
0.00062,0.000326,0,0,0.00062,no
0.006662,0.003591,0.28125,0.333333,0.003873,no
0,0,0.125,0,0,no
0.000697,0.000762,0,0.333333,0.001084,no
0.001549,0.002612,0.03125,0.333333,0.003408,no
0.003408,0.002067,0,0,0.003408,no
0.003408,0.002067,0,0,0.003408,no
0.003408,0.002067,0,0,0.003408,no
0.003408,0.002067,0,0,0.003408,no
0,0,0,0,0,no
0,0,0,0,0,no
0,0,0,0,0,no
0,0,0,0,0,no
0,0,0,0,0,no
0,0,0,0,0,no
0,0,0,0,0,no
0,0,0,0,0,no
0,0,0,0,0,no
0,0,0.03125,0,0,no
0,0,0,0,0,no
0,0,0.09375,0.333333,0,no
0.002634,0.00185,0,0,0.002634,no
0,0,0,0,0,no
0,0,0,0,0,no
0,0,0,0,0,no
0.001394,0.000979,0,0,0.001394,no
0.001084,0.000762,0,0,0.001084,no
0,0,0,0,0,no
0,0,0,0,0,no
0.001549,0.001088,0,0,0.001549,no
0.004183,0.000218,0.21875,0.333333,0.004028,no
0.007281,0.005114,0.125,0.333333,0.007281,no
0,0,0,0,0,no
0,0,0.03125,0,0,no
0,0,0,0,0,no
0,0,0,0,0,no
0,0,0.1875,0.333333,0,no
0,0,0,0,0,no
0,0,0.125,0.333333,0,no
0,0,0.15625,0.333333,0,no
0,0,0,0,0,no
0,0,0.09375,0,0,no
0,0,0,0,0,no
0,0,0,0,0,no
0,0,0,0,0,no
0,0,0,0,0,no
0,0,0,0,0,no
0,0,0.125,0.333333,0,no
0,0,0.125,0.333333,0,no
0,0,0.125,0.666667,0,no
0,0,0.125,0.333333,0,no
0,0,0.09375,0.333333,0,no
0,0,0.09375,0.333333,0,no
0,0,0,0,0,no
0,0,0,0,0,no
0,0,0,0,0,no
0,0,0.09375,0.333333,0,no
0,0,0.09375,0,0,no
0,0,0.0625,0.666667,0,no
0,0,0.125,0.666667,0,no
0,0,0.125,0.333333,0,no
0,0,0.09375,0.333333,0,no
0,0,0.09375,0.333333,0,no
0,0,0,0,0,no
0,0,0,0,0,no
0,0,0,0,0,no
0,0,0,0,0,no
0,0,0.0625,0,0,no
0,0,0.09375,0.666667,0,no
0,0,0.09375,0.333333,0,no
0,0,0,0,0,no
0,0,0,0.333333,0,no
0,0,0.125,0.666667,0,no
0,0,0.125,0.333333,0,no
0,0,0.09375,0.666667,0,no
0,0,0.09375,0.333333,0,no
0,0,0.0625,0.333333,0,no
0,0,0.15625,0.333333,0,no
0,0,0.15625,0.333333,0,no
0,0,0,0,0,no
0,0,0.15625,0.666667,0,no
0,0,0.125,0.333333,0,no
0,0,0.03125,0.333333,0,no
0,0,0.03125,0,0,no
0,0,0,0.333333,0,no
0,0,0.0625,0,0,no
0,0,0.0625,0.333333,0,no
0.00031,0.000109,0,0.333333,0.00031,no
0.001549,0.000979,0,0,0.001549,no
0.001782,0.002176,0,0.333333,0.002943,no
0.00031,0.000109,0,0.333333,0.00031,no
0.00031,0.000109,0,0.333333,0.00031,no
0.00031,0.000218,0,0,0.00031,no
0.00031,0.000109,0,0,0.00031,no
0,0,0,0,0,no
0,0,0,0.333333,0,no
0,0,0,0,0,no
0,0,0,0,0,no
0,0,0,0.333333,0,no
0,0,0,0,0,no
0,0,0,0,0,no
0,0,0.03125,0,0,no
0,0,0,0,0,no
0.002556,0.003591,0.0625,0.333333,0.004338,no
0.004338,0.003047,0,0,0.004338,no
0.004338,0.003047,0,0,0.004338,no
0.004338,0.003047,0,0,0.004338,no
0,0,0,0,0,no
0,0,0,0,0,no
0,0,0,0,0,no
0,0,0,0,0,no
0,0,0,0,0,no
0,0,0,0,0,no
0,0,0.03125,0.333333,0,no
0,0,0.0625,0.333333,0,no
0,0,0.0625,0.333333,0,no
0.00031,0.000109,0.0625,0.333333,0.00031,no
0,0,0.0625,0,0,no
0.00031,0.000109,0.15625,0.666667,0.00031,no
0.00031,0.000109,0.09375,0.333333,0.00031,no
0,0,0.15625,0.333333,0,no
0,0,0.09375,0.333333,0,no
0,0,0,0,0,no
0,0,0,0,0,no
0,0,0,0,0,no
0,0,0,0,0,no
0.001704,0.000871,0,0,0.001704,no
0.001472,0.001306,0.09375,0.666667,0.001704,no
0.000465,0.000326,0.09375,0.333333,0.00062,no
0.000775,0.000871,0,0.333333,0.001239,no
0.003176,0.003373,0.21875,0.666667,0.003253,no
0.001239,0.001197,0.125,0.333333,0.00093,no
0.003331,0.003591,0.21875,0.666667,0.002943,no
0.001394,0.001306,0.125,0.333333,0.00093,no
0.009656,0.019695,0.125,0.333333,0.026801,no
0.009554,0.019587,0.125,0.666667,0.026801,no
0.007707,0.020348,0.28125,0.333333,0.026801,no
0.007436,0.020022,0.28125,0.333333,0.026801,no
0.00945,0.019478,0.15625,0.666667,0.026801,no
0.026801,0.018825,0.03125,0,0.026801,no
0.026801,0.018825,0,0,0.026801,no
0.026801,0.018825,0,0,0.026801,no
0.026801,0.018825,0,0,0.026801,no
0.013555,0.018934,0.09375,0.333333,0.026801,no
0.013555,0.018934,0.09375,0.666667,0.026801,no
0.026801,0.018825,0.15625,0.666667,0.026801,no
0.026801,0.018825,0.09375,0.333333,0.026801,no
0,0,0.0625,0.333333,0,no
0,0,0.0625,0,0,no
0,0,0.1875,0.333333,0,no
0,0,0.125,0.333333,0,no
0.002014,0.001415,0.09375,0,0.002014,no
0.000826,0.001197,0.09375,0.333333,0.000465,no
0.000558,0.001415,0.03125,0,0.001084,no
0,0,0,0,0,no
0.001084,0.000762,0.09375,0.333333,0.001084,no
0,0,0.03125,0,0,no
0,0,0.03125,0,0,no
0.001146,0.002067,0.125,0.333333,0.002169,no
0.001456,0.003264,0,0.333333,0.002324,no
0.002541,0.008161,0.0625,0.333333,0.006971,no
0.00213,0.00555,0.1875,0.333333,0.006971,no
0.000697,0.000544,0.09375,0.333333,0.000775,no
0.000387,0.000762,0.15625,0.333333,0.000465,no
0.000155,0.000109,0,0.333333,0.000155,no
0,0,0,0,0,no
0.000775,0.00185,0.09375,0.333333,0.001394,no
0.000891,0.001741,0.0625,0.333333,0.001394,no
0,0,0,0,0,no
0.000775,0.000544,0,0,0.000775,no
0.000775,0.000544,0,0,0.000775,no
0.00062,0.000218,0,0,0.00031,no
0.002324,0.001523,0.21875,0.333333,0.002014,no
0.00093,0.000653,0,0,0.00093,no
0.00031,0.000109,0,0,0.00031,no
0,0,0,0,0,no
0,0,0,0,0,no
0,0,0,0,0,no
0,0,0,0,0,no
0,0,0,0,0,no
0,0,0,0,0,no
0,0,0,0,0,no
0,0,0,0,0,no
0,0,0,0,0,no
0,0,0,0,0,no
0,0,0,0,0,no
0,0,0,0,0,no
0,0,0,0,0,no
0,0,0,0,0,no
0,0,0,0,0,no
0,0,0,0,0,no
0.00031,0.000109,0.03125,0,0.00031,no
0,0,0.03125,0.333333,0,no
0,0,0,0,0,no
0,0,0,0,0,no
0,0,0,0,0,no
0,0,0,0,0,no
0,0,0,0,0,no
0,0,0,0,0,no
0,0,0,0,0,no
0,0,0,0,0,no
0.000775,0.000979,0.1875,0.333333,0.001239,no
0.000465,0.000218,0.09375,0,0.000465,no
0,0,0,0,0,no
0,0,0,0,0,no
0,0,0,0,0,no
0,0,0,0,0,no
0,0,0,0,0,no
0,0,0,0,0,no
0,0,0,0,0,no
0,0,0,0,0,no
0,0,0,0,0,no
0.000387,0.000326,0,0,0.00031,no
0.00062,0.000109,0.03125,0.333333,0.00062,no
0,0,0.03125,0,0,no
0.00062,0.000109,0.0625,0,0.00062,no
0.00062,0.000109,0.03125,0,0.00062,no
0.00031,0.000109,0,0,0.00031,no
0.00062,0.000109,0,0,0.00062,no
0.00031,0.000109,0.0625,0.333333,0.00031,no
0.00031,0.000109,0,0,0.00031,no
0.000465,0.000326,0,0,0.00062,no
0.00062,0.000435,0,0,0.00062,no
0.001317,0.002067,0,0.333333,0.004648,no
0.00222,0.002829,0,0,0.004648,no
0.00062,0.000218,0,0,0.00062,no
0.00031,0.000109,0,0,0.00031,no
0,0,0.03125,0,0,no
0.00306,0.014908,0.34375,0.666667,0.015027,no
0.005216,0.009902,0.1875,0.333333,0.01007,no
0.005061,0.009684,0.125,0.333333,0.01007,no
0.006558,0.012187,0.0625,0.333333,0.015027,no
0.006713,0.012405,0,0,0.015027,no
0.006765,0.012731,0,0,0.015027,no
0.00457,0.012078,0,0,0.015027,no
0.00661,0.012296,0,0,0.015027,no
0.00093,0.000435,0.03125,0,0.000775,no
0.004802,0.001306,0,0,0.004183,no
0,0,0,0,0,no
0.003563,0.000218,0,0,0.003563,no
0,0,0.03125,0,0,no
0.003501,0.011643,0.09375,0.333333,0.008366,no
0.00031,0.000109,0.03125,0,0.00031,no
0,0,0,0,0,no
0.003253,0.011208,0.03125,0.333333,0.008366,no
0.00031,0.000109,0.03125,0,0.00031,no
0,0,0,0,0,no
0,0,0,0,0,no
0.011309,0.000109,0.03125,0,0.011309,no
0.009915,0.013819,0.03125,0,0.01952,no
0.01952,0.013711,0.03125,0,0.01952,no
0.011464,0.014908,0,0,0.01952,no
0.011568,0.017193,0.09375,0.333333,0.01952,no
0,0,0,0,0,no
0.00031,0.000109,0.03125,0,0.00031,no
0.010844,0.014472,0,0,0.01952,no
0,0,0.03125,0,0,no
0.005836,0.01926,0.375,0.666667,0.01952,no
0.000414,0.000871,0.15625,0.333333,0.00031,no
0,0,0,0,0,no
0.00031,0.000109,0.03125,0,0.00031,no
0.004028,0.001523,0,0,0.004028,no
0.004028,0.001523,0,0,0.004028,no
0.004028,0.001523,0,0,0.004028,no
0,0,0,0,0,no
0.00093,0.000435,0.03125,0,0.000775,no
0.007591,0.010337,0.03125,0,0.013013,no
0,0,0,0,0,no
0.007746,0.009793,0.0625,0,0.013013,no
0.008727,0.015343,0.1875,0.333333,0.013013,no
0.005216,0.009902,0.1875,0.333333,0.01007,no
0.007901,0.015778,0.1875,0.333333,0.01007,no
0.005216,0.009902,0.1875,0.333333,0.01007,no
0.005216,0.009902,0.1875,0.333333,0.01007,no
0.005061,0.009684,0.125,0.333333,0.01007,no
0.000697,0.000544,0.125,0.666667,0.00093,no
0.000542,0.000435,0.125,0.333333,0.00093,no
0,0,0,0,0,no
0,0,0,0,0,no
0,0,0,0,0,no
0,0,0,0,0,no
0.00093,0.000435,0.03125,0,0.000775,no
0.000775,0.000218,0.0625,0.333333,0.000465,no
0.00031,0.000109,0.0625,0.333333,0.00031,no
0,0,0,0,0,no
0,0,0,0,0,no
0,0,0,0,0,no
0,0,0.03125,0,0,no
0,0,0,0,0,no
0,0,0,0,0,no
0,0,0.03125,0,0,no
0,0,0,0,0,no
0,0,0,0,0,no
0,0,0.03125,0,0,no
0,0,0,0,0,no
0,0,0,0,0,no
0,0,0,0,0,no
0,0,0.03125,0,0,no
0,0,0.21875,0,0,no
0.00031,0.000109,0,0,0.00031,no
0,0,0,0,0,no
0,0,0,0,0,no
0,0,0.03125,0,0,no
0.00093,0.000653,0.0625,0,0.00093,no
0.00062,0.000435,0,0,0.00062,no
0,0,0.03125,0,0,no
0,0,0,0,0,no
0.001084,0.000435,0.03125,0,0.001084,no
0,0,0,0,0,no
0,0,0,0,0,no
0.001859,0.001306,0.03125,0,0.001859,no
0.001859,0.001306,0.03125,0,0.001859,no
0,0,0,0,0,no
0.00031,0.000109,0.09375,0,0.00031,no
0.000775,0.000544,0,0,0.000775,no
0.00062,0.000218,0.0625,0,0.00031,no
0,0,0.0625,0.333333,0,no
0,0,0,0,0,no
0.000465,0.000326,0.1875,0.333333,0.00031,no
0.001084,0.001197,0.09375,0,0.001239,no
0,0,0,0,0,no
0.00031,0.000109,0,0,0.00031,no
0.00093,0.000544,0,0,0.00093,no
0.00093,0.000544,0,0,0.00093,no
0.001239,0.002394,0.40625,1,0.001859,no
0,0,0,0,0,no
0.001162,0.001415,0.1875,0.333333,0.001239,no
0,0,0,0,0,no
0,0,0,0,0,no
0,0,0,0,0,no
0,0,0.125,0,0,no
0,0,0,0,0,no
0,0,0.03125,0,0,no
0,0,0,0,0,no
0,0,0.09375,0,0,no
0.00031,0.000109,0,0,0.00031,no
0,0,0,0,0,no
0,0,0,0,0,no
0.00031,0.000109,0,0,0.00031,no
0,0,0,0,0,no
0,0,0,0,0,no
0,0,0,0,0,no
0,0,0,0,0,no
0,0,0,0,0,no
0,0,0,0,0,no
0,0,0,0,0,no
0.000465,0.000326,0,0,0.000465,no
0.000465,0.000326,0,0,0.000465,no
0.000465,0.000326,0,0,0.000465,no
0.000775,0.000544,0,0,0.000775,no
0,0,0,0,0,no
0.00031,0.000109,0,0.333333,0.00031,no
0,0,0,0,0,no
0,0,0,0,0,no
0,0,0,0,0,no
0,0,0,0,0,no
0,0,0,0,0,no
0,0,0,0,0,no
0,0,0.0625,0.333333,0,yes
0.001627,0.002176,0,0,0.002479,no
0.001472,0.001632,0,0,0.002634,no
0.001472,0.001632,0,0,0.002634,no
0,0,0,0,0,no
0.00031,0.000109,0,0,0.00031,yes
0,0,0,0,0,yes
0.000465,0.000326,0,0,0.00031,yes
0.001394,0.00185,0,0,0.002479,yes
0.001653,0.003264,0,0,0.002479,yes
0.000878,0.001741,0.0625,0,0.001859,no
0.000155,0.000109,0,0,0.000155,no
0.00031,0.000109,0,0,0.00031,yes
0.00031,0.000109,0,0,0.00031,yes
0,0,0,0,0,yes
0.00031,0.000109,0,0,0.00031,yes
0,0,0,0,0,yes
0,0,0,0,0,yes
0.001084,0.000653,0.03125,0,0.001084,yes
0.00062,0.000109,0.03125,0.333333,0.00062,no
0.000697,0.000653,0.125,0.333333,0.000775,no
0,0,0,0,0,no
0.000516,0.000544,0.0625,0.333333,0.00031,yes
0,0,0,0,0,yes
0.000516,0.000435,0.03125,0,0.000775,yes
0.00031,0.000109,0.03125,0,0.00031,no
0,0,0,0,0,yes
0,0,0,0,0,yes
0.003563,0.00555,0.0625,0.333333,0.002634,yes
0.004287,0.005005,0.125,0.333333,0.003873,no
0.004648,0.004135,0.125,0,0.004183,no
0.001653,0.003156,0.03125,0,0.004028,no
0.001084,0.000218,0,0,0.001084,no
0,0,0.0625,0.333333,0,yes
0,0,0,0,0,no
0,0,0,0,0,no
0.005422,0.003808,0,0,0.005422,no
0,0,0.0625,0.333333,0,yes
0.005422,0.003808,0.0625,0,0.005422,no
0.004338,0.006094,0,0,0.005422,no
0.001782,0.002394,0,0,0.003253,no
0,0,0.0625,0.333333,0,yes
0,0,0,0,0,no
0,0,0.0625,0.333333,0,yes
0.000155,0.000109,0,0,0.000155,no
0,0,0.0625,0.333333,0,yes
0,0,0.03125,0,0,no
0,0,0.0625,0,0,no
0,0,0,0,0,no
0,0,0,0,0,no
0,0,0,0,0,no
0,0,0,0,0,no
0.00031,0.000109,0,0,0.00031,no
0,0,0,0,0,no
0.00031,0.000109,0,0,0.00031,no
0,0,0,0,0,no
0,0,0,0,0,no
0,0,0,0,0,no
0,0,0,0,0,no
0,0,0,0,0,no
0,0,0,0,0,no
0,0,0,0,0,no
0,0,0,0,0,no
0,0,0,0,0,no
0,0,0,0,0,no
0.002634,0.00185,0.03125,0,0.002634,no
0.002634,0.00185,0,0,0.002634,no
0,0,0,0,0,no
0,0,0,0,0,no
0,0,0,0,0,no
0,0,0,0,0,no
0,0,0,0,0,no
0,0,0,0,0,no
0,0,0,0,0,no
0,0,0,0,0,no
0,0,0.03125,0,0,no
0.00031,0.000109,0.09375,0.333333,0.00031,no
0.001549,0.000979,0,0,0.001549,no
0.001549,0.000979,0,0,0.001549,no
0.00093,0.001088,0.0625,0,0.001549,no
0.00031,0.000109,0.0625,0,0.00031,no
0,0,0,0,0,no
0.000465,0.000218,0,0,0.00031,no
0,0,0,0,0,no
0.000542,0.000653,0,0,0.000775,no
0.000775,0.000544,0,0,0.000775,no
0,0,0,0,0,no
0.000775,0.000544,0,0,0.000775,no
0.000465,0.000218,0,0,0.000465,no
0.000465,0.000653,0,0,0.000775,no
0,0,0,0,0,no
0.00062,0.000435,0,0,0.00062,no
0,0,0,0,0,no
0.00031,0.000109,0.125,0.333333,0.00031,no
0,0,0,0,0,no
0,0,0.03125,0.333333,0,no
0,0,0,0,0,no
0,0,0,0,0,no
0.00062,0.000218,0,0,0.00062,no
0,0,0,0,0,no
0,0,0,0,0,no
0,0,0.0625,0,0,no
0,0,0,0,0,no
0,0,0.03125,0.333333,0,no
0,0,0,0,0,no
0,0,0,0,0,no
0,0,0,0,0,no
0.000891,0.001415,0.15625,0.333333,0.00062,no
0.00062,0.000435,0.03125,0.666667,0.00062,no
0,0,0.03125,0,0,no
0,0,0,0,0,no
0.00031,0.000109,0.09375,0.333333,0.00031,no
0,0,0,0,0,no
0,0,0,0,0,no
0.00031,0.000109,0.0625,0.333333,0.00031,no
0,0,0,0,0,no
0,0,0.03125,0,0,no
0,0,0,0,0,no
0,0,0.03125,0.333333,0,no
0,0,0,0,0,no
0,0,0,0,0,no
0,0,0,0,0,no
0,0,0,0,0,no
0.000465,0.000435,0,0,0.000465,no
0.002169,0.001197,0.03125,0.333333,0.001549,no
0,0,0,0,0,no
0.00031,0.000109,0,0,0.00031,no
0,0,0,0,0,no
0.000387,0.000326,0,0,0.000465,no
0.001394,0.001741,0,0.333333,0.002479,no
0.001394,0.001741,0,0,0.002479,no
0.002479,0.001632,0,0.333333,0.002479,no
0,0,0,0,0,no
0,0,0,0,0,no
0.001704,0.002067,0.09375,0.333333,0.002789,no
0.00031,0.000109,0.03125,0,0.00031,no
0.00031,0.000109,0.03125,0,0.00031,no
0.004287,0.008487,0,0,0.011774,no
0.004132,0.008487,0.03125,0.333333,0.011774,no
0.01038,0.014472,0.0625,0,0.020449,no
0.004957,0.016104,0.40625,1,0.020449,no
0.00031,0.000109,0.03125,0,0.00031,no
0.00723,0.014799,0.09375,0.666667,0.020449,no
0.007022,0.014581,0.03125,0,0.020449,no
0.00031,0.000109,0.03125,0,0.00031,no
0.00031,0.000109,0.03125,0,0.00031,no
0.01038,0.014472,0.0625,0,0.020449,no
0.001704,0.002067,0.09375,0.333333,0.002789,no
0.005422,0.000653,0.0625,0.333333,0.00945,no
0.001704,0.002067,0.09375,0.333333,0.002789,no
0.002401,0.002612,0.15625,0.333333,0.002789,no
0.00031,0.000109,0.03125,0,0.00031,no
0.00031,0.000109,0.03125,0,0.00031,no
0.001704,0.002067,0.09375,0.333333,0.002789,no
0.000155,0.000109,0,0,0.000155,no
0,0,0.03125,0,0,no
0,0,0,0,0,no
0.00031,0.000109,0,0,0.00031,no
0.000465,0.000218,0,0,0.000465,no
0.000155,0.000109,0.03125,0.333333,0.000155,no
0.001472,0.001632,0.09375,0.333333,0.002169,no
0,0,0,0,0,no
0.001472,0.001632,0.09375,0.333333,0.002169,no
0.00031,0.000109,0,0,0.00031,no
0.000414,0.000544,0.03125,0.333333,0.00062,no
0.00031,0.000109,0,0,0.00031,no
0,0,0,0,0,no
0.000852,0.000653,0,0,0.001394,no
0.003512,0.006855,0,0,0.00945,no
0.00945,0.006638,0,0,0.00945,no
0.001472,0.001632,0.09375,0.333333,0.002169,no
0,0,0,0,0,no
0.00031,0.000109,0,0,0.00031,no
0.00031,0.000109,0,0,0.00031,no
0.002169,0.003373,0.0625,0,0.004183,no
0.002246,0.002938,0,0,0.004183,no
0.002246,0.002938,0,0,0.004183,no
0.002479,0.003264,0,0,0.004183,no
0.001755,0.003373,0,0,0.004183,no
0,0,0,0.333333,0,no
0.001472,0.001632,0.09375,0.333333,0.002169,no
0.00031,0.000109,0,0,0.00031,no
0,0,0,0,0,no
0.00031,0.000109,0,0,0.00031,no
0.001239,0.003264,0.03125,0.333333,0.003253,no
0.00031,0.000109,0,0,0.00031,no
0,0,0,0,0,no
0.00031,0.000109,0,0,0.00031,no
0.00031,0.000109,0,0,0.00031,no
0,0,0,0,0,no
0.001704,0.001197,0.03125,0,0.001704,no
0.00031,0.000109,0.09375,0,0.00031,no
0,0,0,0.333333,0,no
0.001782,0.002394,0,0.333333,0.003253,no
0.001472,0.001632,0.09375,0.333333,0.002169,no
0,0,0,0,0,no
0.00031,0.000109,0,0,0.00031,no
0.003408,0.002394,0,0.333333,0.003408,no
0.003408,0.002394,0,0,0.003408,no
0.001472,0.001632,0.09375,0.333333,0.002169,no
0.00062,0.000218,0,0,0.00062,no
0,0,0,0,0,no
0.001472,0.001632,0.09375,0.333333,0.002169,no
0.00031,0.000109,0,0,0.00031,no
0,0,0,0,0,no
0.003098,0.002067,0,0,0.003098,no
0.003098,0.002067,0,0,0.003098,no
0.00457,0.005876,0.03125,0.333333,0.004338,no
0,0,0,0,0,no
0.00031,0.000109,0,0,0.00031,no
0.010225,0.006638,0.0625,0.666667,0.004338,no
0.004338,0.003047,0,0,0.004338,no
0.00031,0.000109,0,0,0.00031,no
0.004338,0.003047,0,0,0.004338,no
0.00031,0.000109,0,0,0.00031,no
0.005887,0.003591,0.0625,0.666667,0.004338,no
0.004338,0.003047,0,0,0.004338,no
0.00031,0.000109,0,0,0.00031,no
0.004338,0.003047,0,0,0.004338,no
0.00031,0.000109,0,0,0.00031,no
0,0,0,0,0,no
0,0,0,0.333333,0,no
0,0,0,0.333333,0,no
0,0,0,0.333333,0,no
0,0,0,0.333333,0,no
0.001007,0.001088,0.03125,0,0.001704,no
0.002014,0.001415,0,0,0.002014,no
0.001317,0.001632,0,0,0.002014,no
0.001239,0.000762,0.03125,0,0.001239,no
0.00031,0.000109,0,0.333333,0.00031,no
0.000414,0.000435,0,0.333333,0.00062,no
0.000878,0.001523,0,0.333333,0.002014,no
0.002014,0.001306,0,0,0.002014,no
0.00031,0.000218,0,0.333333,0.00031,no
0.000465,0.000544,0,0.333333,0.00062,no
0.00093,0.001088,0.0625,0,0.00093,no
0.000775,0.000218,0.03125,0,0.000775,no
0.001704,0.002285,0.0625,0,0.002169,no
0.001146,0.002938,0.03125,0,0.002169,no
0.001859,0.003591,0,0,0.003408,no
0.002014,0.002829,0,0,0.003408,no
0.002014,0.002829,0,0,0.003408,no
0.003408,0.002394,0,0,0.003408,no
0.002324,0.003264,0,0,0.003408,no
0.001239,0.000871,0,0,0.001239,no
0.001239,0.000871,0,0,0.001239,no
0,0,0.0625,0,0,no
0.007281,0.005114,0.03125,0,0.007281,no
0.003202,0.006746,0,0,0.007281,no
0.003202,0.006746,0,0,0.007281,no
0.003357,0.006529,0.375,0.666667,0.007281,no
0.00062,0.000218,0,0.333333,0.00031,no
0.002246,0.002285,0,0,0.002324,no
0.002324,0.001523,0,0,0.002324,no
0.001704,0.001959,0,0,0.002324,no
0.003563,0.004353,0.03125,0.333333,0.003408,no
0.003563,0.004353,0.03125,0,0.003408,no
0.003098,0.004026,0,0,0.003408,no
0.003098,0.004026,0,0,0.003408,no
0.00031,0.000109,0,0.333333,0.00031,no
0.00093,0.000326,0,0.333333,0.00093,no
0.00093,0.000326,0,0.333333,0.00093,no
0.00062,0.000218,0,0.333333,0.00031,no
0,0,0.03125,0,0,no
0,0,0,0,0,no
0,0,0,0,0,no
0.00031,0.000218,0,0.333333,0.00031,no
0,0,0,0.333333,0,no
0.002324,0.001632,0,0,0.002324,no
0,0,0,0,0,no
0,0,0,0,0,no
0,0,0,0,0,no
0.00062,0.000218,0,0,0.00062,no
0.000542,0.000544,0.03125,0.333333,0.000775,no
0,0,0,0,0,no
0.000542,0.000544,0.03125,0.333333,0.000775,no
0,0,0,0,0,no
0,0,0,0,0,no
0.001239,0.001959,0.0625,0.333333,0.002014,yes
0.002014,0.001197,0,0,0.002014,yes
0.000542,0.000544,0.03125,0.333333,0.000775,no
0.002014,0.001197,0,0,0.002014,yes
0.002014,0.001197,0,0,0.002014,yes
0.002014,0.001197,0,0,0.002014,yes
0.002014,0.001197,0,0,0.002014,yes
0.002014,0.001197,0,0,0.002014,yes
0,0,0,0,0,no
0,0,0,0,0,no
0.00031,0.000109,0,0,0.00031,no
0,0,0,0,0,no
0.00062,0.000435,0,0,0.00062,no
0.00062,0.000435,0,0,0.00062,no
0,0,0,0,0,no
0,0,0,0,0,no
0,0,0,0,0,no
0,0,0,0,0,no
0,0,0,0,0,no
0,0,0,0,0,no
0,0,0.03125,0,0,no
0,0,0,0,0,no
0,0,0.15625,0.333333,0,no
0,0,0,0,0,no
0,0,0.15625,0.333333,0,no
0,0,0,0,0,no
0,0,0,0,0,no
0,0,0,0,0,no
0,0,0,0,0,no
0,0,0,0,0,no
0,0,0,0,0,no
0,0,0,0,0,no
0,0,0.03125,0,0,no
0,0,0.0625,0,0,no
0,0,0,0,0,no
0,0,0.125,0.333333,0,no
0,0,0,0,0,no
0,0,0,0,0,no
0,0,0,0,0,no
0,0,0,0,0,no
0,0,0,0,0,no
0,0,0,0,0,no
0,0,0,0,0,no
0,0,0,0,0,no
0,0,0,0,0,yes
0,0,0.03125,0.333333,0,no
0,0,0,0,0,no
0,0,0,0,0,no
0,0,0,0,0,no
0,0,0,0,0,no
0,0,0,0,0,no
0,0,0.0625,0,0,no
0,0,0,0,0,no
0.00031,0.000109,0.15625,0.333333,0.00031,no
0.00031,0.000109,0.15625,0.333333,0.00031,no
0,0,0.03125,0,0,no
0,0,0,0,0,no
0,0,0,0,0,no
0,0,0.03125,0.333333,0,no
0,0,0,0,0,no
0,0,0.03125,0,0,no
0,0,0,0,0,no
0,0,0.03125,0,0,no
0,0,0.03125,0,0,no
0,0,0,0,0,no
0,0,0.03125,0.333333,0,no
0,0,0,0,0,no
0,0,0.03125,0,0,no
0,0,0.125,0.333333,0,yes
0,0,0.125,0.333333,0,no
0,0,0,0,0,no
0,0,0.03125,0,0,no
0,0,0,0,0,no
0,0,0.03125,0,0,no
0.00062,0.000218,0,0,0.00062,no
0,0,0,0,0,no
0,0,0,0,0,no
0.000775,0.000544,0,0,0.000775,no
0,0,0,0,0,no
0,0,0,0,0,no
0,0,0,0,0,no
0.00062,0.000218,0.03125,0,0.00062,no
0,0,0,0,0,no
0.000775,0.000544,0,0,0.000775,no
0,0,0.03125,0,0,yes
0,0,0.25,0.333333,0,yes
0,0,0,0,0,no
0,0,0,0,0,no
0,0,0,0,0,no
0,0,0.125,0.333333,0,yes
0,0,0.125,0.333333,0,yes
0,0,0.03125,0,0,yes
0,0,0.03125,0,0,no
0,0,0.0625,0,0,no
0.00062,0.000109,0,0,0.00062,no
0,0,0.09375,0,0,no
0,0,0.09375,0,0,yes
0,0,0.03125,0,0,no
0,0,0.03125,0,0,yes
0.00062,0.000109,0.1875,0.333333,0.00062,yes
0.00062,0.000109,0.1875,0.666667,0.00062,yes
0.006146,0.003917,0.03125,0.333333,0.006971,no
0.004338,0.001197,0,0,0.004338,no
0.004338,0.001197,0,0,0.004338,no
0.004338,0.001197,0,0,0.004338,no
0.001007,0.001088,0,0,0.001394,no
0.000671,0.001197,0,0,0.001084,no
0,0,0,0,0,no
0.002943,0.001959,0.0625,0,0.002634,no
0.003563,0.002176,0,0,0.002634,no
0.003253,0.002938,0.03125,0,0.004338,no
0.004105,0.002285,0.03125,0,0.004338,no
0.000671,0.001197,0,0,0.001084,no
0.00031,0.000109,0.03125,0,0.00031,no
0.001549,0.001415,0.1875,0.333333,0.002014,no
0.001782,0.001741,0.15625,0.666667,0.002943,no
0,0,0.03125,0,0,no
0.000775,0.000544,0.125,0.333333,0.00062,no
0.00031,0.000218,0.09375,0,0.00031,no
0.001936,0.00185,0.15625,0.333333,0.002943,yes
0.001782,0.001741,0.15625,0.666667,0.002943,no
0,0,0.03125,0,0,no
0.00093,0.000218,0.03125,0,0.00093,no
0.00062,0.000218,0.03125,0,0.00031,no
0,0,0,0,0,no
0.00093,0.000326,0.03125,0,0.00062,no
0,0,0,0,0,no
0.00093,0.000326,0.03125,0,0.00031,no
0,0,0,0,0,no
0.00093,0.000326,0.03125,0,0.00031,no
0,0,0,0,0,no
0.00062,0.000218,0.03125,0,0.00031,no
0,0,0,0,0,no
0,0,0,0,0,no
0,0,0,0,0,no
0,0,0.03125,0,0,no
0,0,0,0,0,no
0,0,0.03125,0.333333,0,no
0,0,0,0.333333,0,no
0,0,0.03125,0.333333,0,no
0,0,0,0.333333,0,no
0,0,0.03125,0,0,no
0,0,0,0,0,no
0,0,0.03125,0,0,no
0,0,0,0,0,no
0,0,0.03125,0,0,no
0,0,0,0,0,no
0.00488,0.005441,0.0625,0.666667,0.005732,no
0,0,0.03125,0,0,no
0,0,0.0625,0.666667,0,no
0,0,0.03125,0,0,no
0,0,0.03125,0,0,no
0,0,0,0,0,no
0,0,0.0625,0.333333,0,no
0,0,0,0,0,no
0,0,0.03125,0,0,no
0,0,0.0625,0.333333,0,no
0,0,0.03125,0,0,no
0.002479,0.001741,0.0625,0,0.002479,no
0.003021,0.002938,0.125,0.333333,0.00062,no
0,0,0.0625,0,0,no
0.003873,0.001632,0.34375,0.666667,0.002789,no
0,0,0,0,0,no
0.001859,0.000979,0.46875,0.666667,0.00062,yes
0.00062,0.000218,0.25,0.333333,0.00031,no
0.00062,0.000218,0.25,0.333333,0.00031,no
0.00031,0.000109,0,0,0.00031,no
0.00031,0.000109,0,0,0.00031,no
0.001782,0.001088,0.0625,0.666667,0.001394,no
0,0,0.03125,0,0,no
0,0,0,0,0,no
0,0,0,0,0,no
0,0,0,0,0,no
0,0,0,0,0,no
0,0,0,0,0,no
0.00093,0.000544,0,0,0.00093,no
0.001084,0.000435,0.03125,0,0.001084,no
0.003447,0.007617,0.4375,0.666667,0.002479,yes
0,0,0,0,0,no
0,0,0.03125,0,0,no
0,0,0.03125,0,0,no
0.000465,0.000435,0.03125,0,0.00062,no
0.000569,0.000435,0.09375,0.666667,0.000775,no
0,0,0.03125,0,0,no
0.005887,0.002067,0.03125,0,0.003408,no
0.006507,0.003373,0,0,0.006507,no
0.011929,0.007073,0.125,0,0.006507,no
0.005422,0.0037,0.03125,0,0.005422,no
0.005422,0.0037,0.03125,0,0.005422,no
0.001356,0.003591,0,0,0.003408,no
0.001356,0.003591,0,0,0.003408,no
0.000558,0.001741,0,0,0.00093,no
0.000542,0.001197,0,0,0.00093,no
0.00031,0.000109,0,0,0.00031,no
0,0,0,0,0,no
0.004802,0.003373,0.09375,0.666667,0.004802,no
0.007591,0.010664,0,0,0.010689,no
0.005163,0.010773,0,0,0.010689,no
0.005216,0.010881,0,0,0.010689,no
0.005163,0.010881,0,0,0.010689,no
0.00316,0.01099,0,0,0.010689,no
0.007591,0.010664,0,0,0.010689,no
0.005163,0.010773,0,0,0.010689,no
0.005216,0.010881,0,0,0.010689,no
0.005163,0.010881,0,0,0.010689,no
0.00316,0.01099,0,0,0.010689,no
0.003047,0.009576,0,0,0.010689,no
0.004802,0.003373,0.09375,0.666667,0.004802,no
0.00253,0.004244,0,0,0.005732,no
0.005473,0.015887,0,0,0.013478,no
0.006093,0.031121,0,0,0.014562,no
0.006158,0.029489,0,0,0.014562,no
0.001278,0.002503,0,0,0.001859,yes
0.002014,0.001088,0,0,0.002014,no
0.00169,0.009793,0.125,0.333333,0.007281,no
0.000775,0.001415,0.03125,0,0.001704,no
0.002124,0.018716,0.375,0.666667,0.011154,no
0.003253,0.008705,0,0,0.011154,no
0.003459,0.012949,0.03125,0,0.011154,yes
0.00426,0.011861,0,0,0.011154,no
0.008056,0.011317,0,0,0.011154,no
0.004679,0.01556,0.03125,0,0.011154,no
0.002505,0.009467,0,0.333333,0.006197,no
0.001394,0.000871,0,0,0.001394,no
0.002827,0.005767,0.25,0.333333,0.013633,no
0.00277,0.00555,0.25,0.333333,0.013633,no
0.001504,0.005441,0.09375,0.333333,0.002169,yes
0.005453,0.014255,0,0.333333,0.00883,no
0.003822,0.007943,0,0,0.00883,no
0.004648,0.006855,0,0,0.00883,no
0.004764,0.011643,0,0,0.00883,no
0.004648,0.011643,0,0,0.00883,no
0.004741,0.01099,0.0625,0,0.00883,no
0.00883,0.006202,0.125,0,0.00883,no
0.000775,0.000762,0.03125,0,0.00093,no
0.002324,0.007943,0.1875,0.333333,0.006042,no
0.011464,0.008052,0.03125,0,0.011464,no
0.003292,0.01654,0.21875,0.333333,0.011464,yes
0.008598,0.011752,0,0,0.011464,no
0.005887,0.00827,0.03125,0,0.011464,no
0.011464,0.008052,0.03125,0,0.011464,no
0.006352,0.008379,0,0,0.011464,no
0.001278,0.002503,0,0,0.001859,yes
0.001975,0.003917,0.03125,0,0.002014,yes
0.001278,0.002503,0,0,0.001859,yes
0.002014,0.001088,0,0,0.002014,no
0.001704,0.005876,0.125,0.333333,0.005887,yes
0.001588,0.001741,0.03125,0,0.002789,no
0.00093,0.001197,0,0,0.001549,no
0.00062,0.000218,0,0,0.00062,no
0.002324,0.002176,0.03125,0,0.002634,no
0.00222,0.003156,0.0625,0,0.002634,no
0.000155,0.000109,0.03125,0.333333,0.000155,no
0,0,0,0,0,no
0.004802,0.003373,0.09375,0.666667,0.004802,no
0,0,0,0,0,no
0,0,0.03125,0,0,no
0,0,0.21875,0.333333,0,no
0,0,0.09375,0,0,no
0.004802,0.003373,0.09375,0.333333,0.004802,no
0.004802,0.003373,0.09375,0.666667,0.004802,no
0,0,0.03125,0,0,no
0,0,0,0,0,no
0,0,0,0,0,no
0,0,0,0,0,no
0.00031,0.000109,0,0,0.00031,no
0.00031,0.000109,0,0,0.00031,no
0.001084,0.001197,0,0,0.001239,no
0.000775,0.001088,0,0,0.001239,no
0.000878,0.001197,0.15625,0,0.00062,no
0.000465,0.000435,0,0,0.00031,no
0.00062,0.000218,0,0,0.00031,no
0.001588,0.003591,0.25,0.333333,0.002943,no
0,0,0,0,0,no
0,0,0,0,0,no
0.003718,0.002612,0,0,0.003718,no
0.002324,0.003156,0,0,0.003718,no
0.002324,0.003156,0,0,0.003718,no
0.003718,0.002612,0,0,0.003718,no
0.003718,0.002612,0,0,0.003718,no
0,0,0,0,0,no
0,0,0,0,0,no
0,0,0,0,0,no
0.000465,0.000109,0.0625,0,0.000465,no
0.000465,0.000326,0,0,0.000465,no
0.010999,0.007726,0,0,0.010999,no
0.005732,0.008052,0,0,0.010999,no
0.010999,0.007726,0,0,0.010999,no
0.010999,0.007726,0.15625,0.333333,0.010999,no
0,0,0,0,0,no
0.000465,0.000109,0.0625,0,0.000465,no
0.000465,0.000326,0,0,0.000465,no
0.023857,0.016757,0,0,0.023857,no
0.010999,0.007726,0,0,0.010999,no
0.005732,0.008052,0,0,0.010999,no
0.010999,0.007726,0,0,0.010999,no
0.010999,0.007726,0.15625,0.333333,0.010999,no
0.023857,0.016757,0,0,0.023857,no
0.010999,0.007726,0,0,0.010999,no
0.005732,0.008052,0,0,0.010999,no
0.010999,0.007726,0,0,0.010999,no
0.010999,0.007726,0.15625,0.333333,0.010999,no
0.023857,0.016757,0,0,0.023857,no
0.010999,0.007726,0,0,0.010999,no
0.005732,0.008052,0,0,0.010999,no
0.010999,0.007726,0,0,0.010999,no
0.010999,0.007726,0.15625,0.333333,0.010999,no
0.023857,0.016757,0.09375,0.333333,0.023857,no
0,0,0,0,0,no
0.010999,0.007726,0.15625,0.333333,0.010999,no
0.005732,0.008052,0,0,0.010999,no
0.010999,0.007726,0,0,0.010999,no
0.010999,0.007726,0,0,0.010999,no
0,0,0,0,0,no
0.010999,0.007726,0.15625,0.333333,0.010999,no
0.005732,0.008052,0,0,0.010999,no
0.010999,0.007726,0,0,0.010999,no
0.010999,0.007726,0,0,0.010999,no
0,0,0,0,0,no
0.010999,0.007726,0.15625,0.333333,0.010999,no
0.005732,0.008052,0,0,0.010999,no
0.010999,0.007726,0,0,0.010999,no
0.010999,0.007726,0,0,0.010999,no
0.000465,0.000109,0.0625,0,0.000465,no
0.000465,0.000326,0,0,0.000465,no
0.000465,0.000109,0.0625,0,0.000465,no
0.000465,0.000326,0,0,0.000465,no
0.010999,0.007726,0,0,0.010999,no
0.010999,0.007726,0,0,0.010999,no
0.005732,0.008052,0,0,0.010999,no
0.010999,0.007726,0,0,0.010999,no
0.010999,0.007726,0.15625,0.333333,0.010999,no
0,0,0,0,0,no
0.001084,0.000435,0,0,0.001084,no
0.001394,0.000435,0.0625,0,0.001394,no
0.00031,0.000109,0.09375,0.333333,0.00031,no
0,0,0.03125,0,0,no
0,0,0.03125,0,0,no
0,0,0.03125,0,0,no
0,0,0,0,0,no
0,0,0.03125,0,0,no
0,0,0,0,0,no
0,0,0.0625,0,0,no
0,0,0.15625,0.333333,0,no
0,0,0,0,0,no
0,0,0,0,0,no
0,0,0,0,0,no
0,0,0.03125,0,0,no
0,0,0.03125,0,0,no
0,0,0,0,0,no
0,0,0.09375,0.333333,0,yes
0,0,0,0,0,no
0.000852,0.000653,0,0,0.001239,no
0.001239,0.000871,0,0,0.001239,no
0.00093,0.000326,0.125,0.333333,0.00031,no
0,0,0,0,0,no
0,0,0,0,0,no
0,0,0.0625,0,0,no
0.000542,0.000544,0.375,0.666667,0.000465,no
0,0,0,0,0,no
0.003873,0.00185,0.09375,0,0.003873,no
0.002634,0.00185,0.0625,0,0.002634,no
0.002634,0.00185,0,0,0.002634,no
0.003408,0.003264,0.15625,0.333333,0.002634,no
0.000465,0.000218,0.03125,0,0.000465,no
0.000465,0.000435,0.09375,0.333333,0.000465,no
0,0,0.03125,0,0,no
0.00031,0.000109,0,0,0.00031,no
0.001859,0.000979,0,0,0.001859,no
0.001084,0.001306,0,0,0.001704,no
0,0,0,0,0,no
0.000387,0.000326,0,0,0.000465,no
0.007359,0.009576,0,0,0.014407,no
0.014407,0.009358,0,0,0.014407,no
0.002237,0.012405,0.0625,0.333333,0.014407,no
0.006081,0.014799,0,0,0.014407,no
0.00701,0.017519,0,0,0.014407,no
0.004957,0.018172,0.03125,0.333333,0.014407,no
0.003486,0.00827,0.03125,0,0.008985,no
0.006662,0.008052,0,0,0.008985,no
0.006662,0.008052,0,0,0.008985,no
0.003563,0.008379,0,0,0.008985,no
0.005732,0.015234,0.09375,0.333333,0.013633,yes
0.002118,0.004244,0.125,0.333333,0.004338,no
0.00031,0.000109,0.03125,0,0.00031,no
0.001433,0.0037,0.09375,0.333333,0.004802,no
0.002556,0.003482,0,0,0.004802,no
0.002866,0.0037,0.125,0.333333,0.004802,no
0.000426,0.000762,0.03125,0,0.000775,no
0.000723,0.001197,0.0625,0.333333,0.000775,no
0.00275,0.006638,0.21875,0.333333,0.012084,yes
0.006274,0.016322,0.0625,0.333333,0.018125,no
0.009346,0.016322,0.03125,0,0.018125,no
0.007591,0.013058,0.03125,0,0.018125,no
0.0044,0.014472,0.25,0.333333,0.018125,no
0.018125,0.012296,0.0625,0.333333,0.018125,no
0.003222,0.01012,0,0,0.007591,no
0.005112,0.009793,0,0,0.007591,no
0.007049,0.008923,0,0,0.007591,no
0.002978,0.014255,0.21875,0.333333,0.007591,no
0.003253,0.003591,0.21875,0.333333,0.004493,no
0.000155,0.000218,0,0,0.000155,no
0.002479,0.003482,0,0,0.004802,no
0.002375,0.004897,0.03125,0,0.004802,no
0.004802,0.003373,0.03125,0,0.004802,no
0.001239,0.000218,0.03125,0,0.001239,no
0,0,0,0,0,no
0.004802,0.006746,0.0625,0,0.007901,yes
0.007901,0.00555,0.03125,0,0.007901,no
0.007901,0.00555,0.09375,0.333333,0.007901,no
0.007901,0.00555,0.25,0.333333,0.007901,yes
0,0,0,0,0,no
0,0,0,0,0,no
0.000775,0.000544,0,0,0.000775,no
0,0,0.0625,0,0,no
0,0,0,0,0,no
0,0,0.0625,0,0,no
0.007591,0.004135,0.125,0.333333,0.005887,no
0.008521,0.005876,0,0,0.008521,no
0.007591,0.004897,0,0,0.005887,no
0.001084,0.001306,0.125,0.333333,0.001704,no
0.007901,0.005441,0.125,0.333333,0.007901,no
0.007901,0.005441,0.03125,0,0.007901,no
0.00426,0.005767,0.125,0.333333,0.007901,no
0.003641,0.009793,0.21875,0.333333,0.008521,no
0.008521,0.005876,0,0,0.008521,no
0.003718,0.007291,0.1875,0.333333,0.005267,no
0.002866,0.003808,0.125,0.333333,0.005267,no
0,0,0,0,0,no
0.000387,0.000326,0.21875,0.333333,0.000465,no
0,0,0,0,0,no
0,0,0,0,0,no
0.001394,0.000979,0,0,0.001394,no
0,0,0,0,0,no
0,0,0,0,0,yes
0,0,0,0,0,yes
0.00457,0.006311,0.03125,0,0.006507,no
0.006507,0.004461,0.0625,0,0.006507,no
0.000885,0.001415,0.3125,1,0.001859,no
0.00031,0.000218,0.0625,0,0.00031,no
0.000426,0.000435,0.125,0.333333,0.000775,no
0,0,0,0,0,no
0,0,0.0625,0,0,no
0,0,0.125,0.333333,0,yes
0,0,0.0625,0,0,no
0.019365,0.013602,0.03125,0,0.019365,no
0.019365,0.013602,0.03125,0,0.019365,no
0.010225,0.014255,0.125,0.333333,0.019365,no
0.019365,0.013602,0,0,0.019365,no
0.005151,0.014037,0.03125,0,0.019365,no
0.007385,0.015234,0.03125,0,0.019365,no
0.007385,0.015234,0,0,0.019365,no
0.019365,0.013602,0.03125,0,0.019365,no
0.007281,0.014146,0,0,0.019365,no
0.010225,0.014363,0,0,0.019365,no
0.019365,0.013602,0,0,0.019365,no
0,0,0,0,0,yes
0,0,0,0,0,yes
0,0,0.15625,0.333333,0,no
0,0,0,0,0,no
0,0,0,0,0,no
0,0,0,0,0,no
0.000775,0.000218,0,0,0.000775,no
0.000465,0.000109,0.03125,0,0.000465,no
0.00031,0.000109,0.03125,0,0.00031,no
0.001084,0.000871,0,0,0.000775,no
0.000775,0.000544,0,0,0.000775,no
0.001162,0.001632,0.03125,0,0.001549,no
0.001549,0.001088,0,0,0.001549,no
0,0,0,0,0,no
0,0,0,0,0,no
0,0,0,0,0,no
0,0,0,0,0,no
0.00062,0.000218,0,0.333333,0.00031,no
0.006507,0.002176,0.0625,0,0.004802,no
0.004802,0.001632,0,0,0.004802,no
0.001472,0.002067,0.125,0.333333,0.004802,no
0.00031,0.000109,0,0,0.00031,no
0.00062,0.000109,0.03125,0,0.00062,no
0,0,0.09375,0.333333,0,no
0,0,0,0,0,no
0,0,0,0,0,no
0,0,0,0,0,no
0.001704,0.001197,0,0,0.001704,no
0.001704,0.001197,0,0,0.001704,no
0.001704,0.001197,0,0,0.001704,no
0.00031,0.000109,0,0,0.00031,no
0.001007,0.001088,0.125,0.333333,0.001704,no
0.00031,0.000109,0,0,0.00031,no
0.00062,0.000109,0.03125,0,0.00062,no
0,0,0,0,0,no
0,0,0,0.333333,0,no
0.000542,0.000326,0,0,0.00062,no
0,0,0,0,0,no
0,0,0,0,0,no
0.00031,0.000109,0,0,0.00031,no
0.00093,0.000435,0.125,0,0.00062,no
0,0,0.1875,0.333333,0,no
0.000465,0.000218,0.125,0.333333,0.00062,no
0.00062,0.000109,0.03125,0,0.00062,no
0,0,0,0,0,no
0,0,0,0,0,no
0.000581,0.001197,0.3125,0.666667,0.00093,yes
0,0,0.0625,0,0,no
0,0,0.0625,0,0,no
0,0,0,0,0,no
0,0,0.21875,0.333333,0,no
0,0,0,0,0,no
0,0,0.03125,0,0,no
0,0,0.03125,0,0,no
0,0,0,0,0,no
0.00031,0.000109,0,0,0.00031,no
0.000775,0.000871,0,0,0.00093,no
0.00062,0.000435,0,0,0.00062,no
0.00031,0.000326,0,0,0.000465,no
0,0,0,0,0,no
0.001498,0.000653,0,0,0.003718,no
0,0,0,0,0,no
0.000775,0.000109,0,0,0.000775,no
0.076995,0.000109,0,0,0.076995,no
0,0,0,0,0,no
0,0,0,0,0,no
0,0,0,0,0,no
0.00062,0.000544,0.03125,0.333333,0.000775,no
0,0,0,0,0,no
0,0,0,0,0,no
0,0,0,0,0,no
0,0,0,0,0,no
0,0,0.03125,0,0,no
0,0,0.03125,0,0,no
0.003796,0.004788,0.0625,0,0.005267,no
0.003331,0.003917,0.03125,0.333333,0.005267,no
0.001239,0.000109,0.0625,0,0.001239,no
0,0,0.0625,0,0,no
0.000465,0.000435,0,0,0.00062,no
0.001588,0.003156,0.15625,0.333333,0.002324,no
0,0,0,0,0,no
0.002169,0.002938,0.09375,0,0.004028,no
0.002169,0.002938,0,0.333333,0.004028,no
0.004028,0.002829,0,0,0.004028,no
0.004028,0.002829,0,0,0.004028,no
0,0,0,0,0,no
0,0,0,0,0,no
0.001673,0.004788,0.28125,0.333333,0.002324,no
0,0,0,0,0,no
0,0,0,0,0,no
0.001743,0.00457,0.34375,0.666667,0.002169,no
0.00031,0.000218,0,0,0.00031,no
0,0,0.21875,0.666667,0,no
0.001782,0.001959,0.3125,0.666667,0.002324,no
0.002363,0.005441,0.3125,0.666667,0.003408,no
0.001084,0.000871,0.21875,0.333333,0.001859,no
0.000775,0.001632,0.09375,0.333333,0.001549,no
0.001549,0.001088,0.03125,0,0.001549,no
0.001704,0.000762,0.0625,0,0.001549,no
0.004957,0.003482,0.03125,0,0.004957,no
0.004957,0.003482,0.0625,0,0.004957,no
0.004957,0.003482,0.0625,0,0.004957,no
0,0,0.03125,0,0,no
0,0,0.0625,0,0,no
0,0,0,0.333333,0,no
0,0,0,0,0,no
0,0,0,0,0,no
0,0,0,0,0,no
0,0,0,0,0,no
0,0,0,0,0,no
0,0,0,0,0,no
0,0,0,0,0,no
0,0,0,0,0,no
0,0,0,0,0,no
0,0,0.03125,0,0,no
0,0,0,0,0,no
0,0,0,0,0,no
0,0,0,0,0,no
0,0,0,0,0,no
0,0,0,0,0,no
0,0,0,0,0,no
0,0,0,0,0,no
0.001084,0.001415,0,0,0.002634,no
0.001368,0.003591,0.03125,0,0.002324,no
0.002324,0.001415,0,0,0.002324,no
0.001472,0.001523,0,0,0.002324,no
0.001549,0.002176,0,0,0.002634,no
0.001188,0.002067,0,0,0.002324,no
0.00129,0.002067,0,0,0.002324,no
0.002324,0.001415,0,0,0.002324,no
0.000775,0.000218,0,0,0.000465,no
0,0,0.03125,0,0,no
0,0,0,0,0,no
0.00062,0.000218,0,0,0.00062,no
0.00062,0.000218,0,0,0.00062,no
0.001859,0.000109,0.03125,0,0.001859,no
0.002169,0.000109,0,0,0.002169,no
0.000775,0.000218,0,0,0.000775,no
0.00031,0.000109,0,0,0.00031,no
0,0,0,0,0,no
0,0,0,0,0,no
0,0,0,0,0,no
0,0,0,0,0,no
0,0,0.03125,0,0,no
0,0,0,0,0,no
0.00031,0.000109,0.03125,0,0.00031,no
0.001859,0.001306,0,0,0.001859,no
0.002634,0.001741,0.0625,0,0.002634,no
0,0,0.03125,0,0,no
0,0,0,0,0,no
0,0,0.03125,0,0,no
0,0,0,0,0,no
0,0,0.1875,0.333333,0,yes
0,0,0,0,0,no
0,0,0,0,0,no
0,0,0,0,0,no
0,0,0,0,0,no
0,0,0,0,0,no
0.00093,0.000653,0,0,0.00093,no
0,0,0.03125,0,0,no
0,0,0,0,0,no
0,0,0,0,0,no
0,0,0,0,0,no
0,0,0,0,0,no
0,0,0.03125,0,0,no
0,0,0.03125,0,0,no
0.001239,0.000653,0.03125,0,0.001239,no
0,0,0,0,0,no
0,0,0,0,0,no
0,0,0,0,0,no
0,0,0,0,0,no
0,0,0,0,0,no
0,0,0,0,0,no
0,0,0.0625,0,0,no
0,0,0,0,0,no
0,0,0,0,0,no
0.00062,0.000218,0,0,0.00062,no
0,0,0,0,0,no
0,0,0.03125,0,0,no
0.00031,0.000109,0,0,0.00031,no
0,0,0,0,0,no
0,0,0.0625,0,0,no
0,0,0,0,0,no
0,0,0,0,0,no
0,0,0,0,0,no
0.002789,0.001959,0,0,0.002789,no
0.002789,0.001959,0,0,0.002789,no
0,0,0,0,0,no
0,0,0,0,0,no
0,0,0,0,0,no
0,0,0,0,0,no
0,0,0,0,0,no
0,0,0,0,0,no
0,0,0,0,0,no
0,0,0,0,0,no
0,0,0,0,0,no
0,0,0,0,0,no
0,0,0,0,0,no
0,0,0,0,0,no
0,0,0,0,0,no
0,0,0,0,0,no
0,0,0,0,0,no
0,0,0,0,0,no
0,0,0,0,0,no
0,0,0,0,0,no
0,0,0,0,0,no
0,0,0,0,0,no
0,0,0,0,0,no
0,0,0,0,0,no
0,0,0,0,0,no
0,0,0,0,0,no
0.00031,0.000109,0,0,0.00031,no
0,0,0,0,0,no
0,0,0,0,0,no
0,0,0,0,0,no
0,0,0,0,0,no
0,0,0,0,0,no
0,0,0,0,0,no
0,0,0.1875,0.333333,0,yes
0.015957,0.001523,0,0,0.015957,no
0.003408,0.001306,0,0,0.003408,no
0.003873,0.001523,0,0,0.003873,no
0.011154,0.007726,0,0,0.011154,no
0.011154,0.007726,0,0,0.011154,no
0.011154,0.007726,0,0,0.011154,no
0.006584,0.00914,0,0,0.011154,no
0.006584,0.00914,0,0,0.011154,no
0,0,0,0,0,no
0.00031,0.001523,0.71875,0.666667,0.00031,yes
0,0,0,0,0,no
0,0,0,0,0,no
0.00031,0.001523,0.75,0.666667,0.00031,yes
0,0,0,0,0,no
0,0,0,0,0,no
0,0,0,0,0,no
0,0,0,0,0,no
0.00093,0.000653,0,0,0.00093,no
0,0,0,0,0,no
0,0,0,0,0,no
0.00093,0.000653,0,0,0.00093,no
0.00093,0.000653,0,0,0.00093,no
0,0,0,0,0,no
0,0,0,0,0,no
0,0,0,0,0,no
0,0,0,0,0,no
0.00093,0.000653,0,0,0.00093,no
0.00093,0.001306,0,0,0.00093,no
0.00093,0.000653,0,0,0.00093,no
0,0,0,0,0,no
0,0,0,0,0,no
0.00093,0.000653,0,0,0.00093,no
0,0,0,0,0,no
0.00093,0.000653,0,0,0.00093,no
0,0,0,0,0,no
0,0,0,0,0,no
0.004415,0.003373,0,0,0.007746,no
0.004415,0.003373,0,0,0.007746,no
0.003331,0.003482,0,0,0.003873,no
0.001963,0.007835,0,0.333333,0.005112,no
0.002273,0.00457,0,0,0.006352,no
0.003641,0.010229,0.0625,0.333333,0.015027,no
0.006301,0.003482,0,0,0.015027,no
0.002711,0.003591,0,0,0.003408,no
0.002014,0.001197,0,0,0.002014,no
0.005732,0.003808,0,0,0.005732,no
0.002363,0.005985,0,0.333333,0.005732,no
0.010844,0.030033,0.03125,0.333333,0.031294,yes
0.031294,0.021654,0,0,0.031294,no
0.031294,0.021654,0,0,0.031294,no
0.008521,0.028945,0.03125,0.666667,0.031294,yes
0.016654,0.022742,0,0.333333,0.031294,yes
0.020294,0.028183,0,0.333333,0.031294,yes
0.010534,0.0284,0.03125,0,0.031294,no
0.001936,0.00185,0.03125,0,0.001704,no
0.000775,0.000435,0,0,0.000775,yes
0.00031,0.000109,0.03125,0,0.00031,yes
0.001007,0.001197,0.15625,0.333333,0.001394,yes
0,0,0,0,0,no
0.00031,0.000109,0,0,0.00031,no
0,0,0,0,0,no
0,0,0,0,0,no
0.002169,0.002829,0,0,0.003408,no
0.000651,0.002067,0,0,0.002169,no
0.001317,0.001741,0,0,0.002169,no
0,0,0,0,0,no
0.002169,0.003917,0.03125,0,0.003873,no
0.000155,0.000109,0,0,0.000155,no
0.002169,0.002938,0.03125,0,0.004028,no
0.002091,0.002938,0,0,0.004028,no
0.00031,0.000109,0.0625,0.333333,0.00031,no
0,0,0,0,0,no
0.00031,0.000109,0.03125,0,0.00031,no
0.000775,0.000435,0,0,0.000775,yes
0.003047,0.003156,0.125,0.333333,0.002634,no
0.002169,0.00272,0.09375,0.333333,0.002634,no
0.003641,0.006311,0,0.666667,0.005112,no
0.002091,0.001959,0,0,0.002479,no
0.000775,0.000435,0,0,0.000775,yes
0.00031,0.000109,0,0,0.00031,no
0.002711,0.0037,0.03125,0,0.005112,no
0.008443,0.011643,0.46875,0.666667,0.00914,no
0,0,0.03125,0,0,no
0,0,0.03125,0,0,no
0,0,0,0,0,no
0.001084,0.001197,0.03125,0,0.00093,no
0.00062,0.000326,0,0,0.00062,no
0.000775,0.000435,0,0,0.000775,yes
0.004397,0.022307,0.3125,0.666667,0.014253,yes
0.00062,0.000544,0,0,0.00062,no
0.000569,0.000762,0,0,0.00062,no
0.00031,0.000109,0,0,0.00031,no
0,0,0,0,0,no
0.012084,0.008487,0,0,0.012084,yes
0.012084,0.008487,0.03125,0,0.012084,yes
0.003253,0.002285,0.03125,0,0.003253,no
0.000465,0.000326,0.0625,0.333333,0.000465,no
0.012084,0.008487,0.03125,0,0.012084,yes
0,0,0,0,0,no
0,0,0,0,0,no
0,0,0.09375,0.333333,0,no
0.006274,0.008705,0.0625,0,0.012084,no
0.012084,0.008487,0,0,0.012084,yes
0.012084,0.008487,0.0625,0,0.012084,no
0.012084,0.008487,0.03125,0,0.012084,yes
0.012084,0.008487,0,0,0.012084,no
0.012084,0.008487,0,0,0.012084,no
0.012084,0.008487,0.03125,0,0.012084,yes
0.012084,0.008487,0,0,0.012084,yes
0.000697,0.000762,0,0,0.001084,no
0,0,0,0,0,no
0,0,0,0,0,no
0.000465,0.000326,0,0,0.00062,no
0.00031,0.000109,0,0,0.00031,no
0.00062,0.000218,0,0,0.00062,no
0.00031,0.000109,0,0,0.00031,no
0,0,0,0,0,no
0.00031,0.000109,0,0,0.00031,no
0.00093,0.000326,0,0,0.00093,no
0.00093,0.000326,0.09375,0,0.00093,no
0.00062,0.000218,0,0.666667,0.00031,no
0.00031,0.000109,0,0,0.00031,no
0,0,0,0,0,no
0.001162,0.001197,0.15625,0.333333,0.001084,no
0.000387,0.000326,0,0,0.00031,no
0,0,0,0,0,no
0.000387,0.000218,0,0,0.000465,no
0.00031,0.000109,0,0,0.00031,no
0.003098,0.002067,0,0,0.003098,no
0.002479,0.003264,0,0,0.003098,no
0.002479,0.003264,0,0,0.003098,no
0.001859,0.001306,0,0,0.001859,no
0,0,0,0,0,no
0,0,0,0,0,no
0,0,0,0,0,no
0,0,0.0625,0.333333,0,no
0,0,0,0,0,no
0,0,0.09375,0.333333,0,no
0,0,0,0,0,no
0,0,0.0625,0.333333,0,no
0,0,0,0,0,no
0,0,0.0625,0,0,yes
0.001136,0.001197,0.21875,0.333333,0.000775,yes
0.000465,0.000109,0.03125,0,0.000465,no
0,0,0.0625,0.333333,0,no
0.002324,0.002612,0,0.333333,0.005577,no
0.001523,0.003917,0.03125,0.333333,0.003563,no
0.003253,0.000326,0.09375,0.333333,0.003253,no
0.000155,0.000109,0,0,0.000155,no
0.000414,0.000435,0,0,0.000465,no
0.000465,0.000218,0,0,0.000465,no
0.005267,0.000326,0,0,0.005267,no
0.005422,0.003482,0,0,0.005422,no
0.005422,0.003482,0,0,0.005422,no
0.005422,0.003482,0,0,0.005422,no
0.002866,0.003591,0.03125,0,0.005422,no
0.005422,0.003482,0,0,0.005422,no
0.004802,0.002612,0,0,0.003408,no
0.001859,0.002285,0,0,0.003408,no
0,0,0,0,0,no
0.001239,0.000871,0,0,0.001239,no
0.001239,0.000871,0,0,0.001239,no
0,0,0,0,0,no
0.001084,0.000762,0,0,0.001084,no
0,0,0.0625,0,0,no
0,0,0.0625,0,0,no
0.00093,0.000326,0,0,0.00093,no
0,0,0,0,0,no
0,0,0,0,0,no
0.003021,0.001741,0.125,0.333333,0.003563,no
0.016731,0.011752,0,0,0.016731,no
0.016731,0.011752,0.09375,0.333333,0.016731,no
0.000465,0.000218,0.03125,0,0.000465,yes
0.016731,0.011752,0.125,0.333333,0.016731,no
0.000775,0.000326,0.09375,0.333333,0.000465,no
0.000775,0.000326,0.09375,0.333333,0.000465,yes
0,0,0.0625,0.666667,0,no
0,0,0,0.333333,0,no
0.000465,0.000218,0.03125,0,0.000465,yes
0.013168,0.009249,0,0.333333,0.013168,no
0.013168,0.009249,0,0.333333,0.013168,no
0.013168,0.009249,0.09375,0.333333,0.013168,no
0.013168,0.009249,0.03125,0,0.013168,no
0.007503,0.021436,0.03125,0.666667,0.02897,no
0.010225,0.020348,0,0,0.02897,no
0.02897,0.019369,0,0,0.02897,no
0.02897,0.019369,0,0,0.02897,no
0.02897,0.019369,0,0,0.02897,no
0.02897,0.019369,0,0,0.02897,no
0.02897,0.019369,0,0,0.02897,no
0.01464,0.019478,0,0,0.02897,no
0.02897,0.019369,0,0,0.02897,no
0.009966,0.019913,0,0,0.02897,no
0.010328,0.020348,0,0,0.02897,no
0.005294,0.020348,0.03125,0,0.02897,no
0.02897,0.019369,0,0,0.02897,no
0.006338,0.036453,0.1875,0.333333,0.02897,yes
0.0134,0.018498,0,0,0.024322,yes
0.002324,0.001415,0,0,0.002324,no
0.001394,0.000544,0.09375,0.333333,0.000465,no
0.001084,0.000435,0.03125,0,0.000465,no
0.00191,0.002612,0.03125,0,0.003408,no
0.005216,0.007182,0.0625,0,0.010999,no
0.00519,0.01284,0,0,0.010999,no
0.004538,0.017954,0.03125,0,0.010999,no
0.011309,0.007182,0,0,0.010534,no
0.003563,0.004679,0,0.333333,0.004028,no
0.010689,0.003264,0,0.333333,0.006662,no
0.007075,0.022198,0.09375,0.666667,0.024322,yes
0.0134,0.018498,0,0,0.024322,yes
0.009346,0.019478,0.03125,0,0.024322,no
0.0134,0.018716,0.03125,0,0.024322,no
0.024322,0.016975,0,0,0.024322,no
0.024322,0.016975,0,0,0.024322,no
0.024322,0.016975,0,0,0.024322,no
0.012316,0.017084,0,0,0.024322,no
0.024322,0.016975,0,0,0.024322,no
0.024322,0.016975,0,0,0.024322,no
0.006352,0.021872,0.0625,0,0.024322,no
0.010586,0.022198,0.03125,0,0.024322,no
0.010586,0.022198,0.03125,0,0.024322,yes
0.009682,0.024701,0.0625,0,0.024322,no
0.008476,0.026115,0.03125,0.333333,0.024322,no
0.008133,0.026551,0.0625,0.333333,0.023703,no
0.007359,0.020348,0,0,0.023703,no
0.012006,0.016649,0,0,0.023703,no
0.001394,0.000544,0.09375,0.333333,0.000465,no
0.006855,0.017737,0,0,0.023703,no
0.001084,0.000435,0.03125,0,0.000465,no
0.011929,0.016649,0.09375,0.333333,0.023703,yes
0.00031,0.000109,0,0,0.00031,no
0,0,0,0,0,no
0.00093,0.000762,0.15625,0.333333,0.000465,no
0.001394,0.000544,0.09375,0.333333,0.000465,no
0.001084,0.000435,0.03125,0,0.000465,no
0,0,0,0,0,no
0,0,0,0,0,no
0,0,0,0,0,no
0,0,0,0,0,no
0,0,0,0,0,no
0.000956,0.003156,0.03125,0.333333,0.001084,no
0.000542,0.000979,0,0,0.000775,no
0.004648,0.003156,0,0,0.004648,no
0.004648,0.003156,0,0,0.004648,no
0.002401,0.006311,0,0,0.004648,no
0.003098,0.006202,0,0,0.004648,no
0.004028,0.00555,0,0,0.004648,no
0.001445,0.002612,0,0,0.003408,no
0.001936,0.002612,0.03125,0,0.003408,no
0.00031,0.000109,0,0,0.00031,no
0,0,0,0,0,no
0,0,0,0,0,no
0,0,0,0,0,no
0,0,0,0,0,no
0,0,0,0,0,no
0.00031,0.000218,0,0,0.00031,no
0.00093,0.001197,0,0,0.001239,no
0.001859,0.00457,0,0,0.003873,no
0.004028,0.00457,0,0,0.003873,no
0.003098,0.0037,0,0,0.003873,no
0.002324,0.004788,0.03125,0,0.003873,no
0.001571,0.005223,0.0625,0.333333,0.002634,no
0.002307,0.01284,0.0625,0.333333,0.008056,no
0.003176,0.013928,0.1875,0.333333,0.008056,no
0.00062,0.000653,0.15625,0.333333,0.00093,no
0,0,0,0,0,no
0,0,0,0,0,no
0.001859,0.002285,0.21875,0.333333,0.002634,no
0.000465,0.000653,0,0.333333,0.00062,no
0.000775,0.001197,0,0,0.001549,no
0.000697,0.000762,0,0,0.00093,no
0.002324,0.000653,0,0,0.002634,no
0.00229,0.009902,0.375,0.666667,0.004338,yes
0.00031,0.000109,0.0625,0,0.00031,yes
0,0,0.03125,0,0,yes
0.00031,0.000218,0,0,0.00031,no
0.003408,0.002829,0.0625,0.333333,0.009295,yes
0.001084,0.00272,0.0625,0,0.002324,yes
0,0,0,0,0,yes
0.000527,0.000979,0.09375,0.333333,0.00062,yes
0.000542,0.000326,0.03125,0,0.000465,yes
0.001084,0.00185,0.03125,0,0.003408,yes
0.001936,0.002285,0.03125,0,0.002943,no
0.000697,0.000218,0,0,0.001084,no
0.00093,0.000326,0,0,0.00062,no
0,0,0,0,0,no
0.00031,0.000109,0,0,0.00031,no
0.00031,0.000109,0,0,0.00031,no
0.000837,0.002176,0,0,0.002014,no
0.002014,0.001415,0,0,0.002014,no
0.000271,0.000544,0,0,0.00031,no
0.00031,0.000218,0.03125,0,0.00031,no
0.002118,0.002938,0.09375,0.333333,0.002789,no
0.00031,0.000218,0,0,0.00031,no
0.001177,0.002829,0.1875,0.666667,0.001549,no
0,0,0,0,0,no
0.001394,0.000979,0,0,0.001394,no
0.004864,0.01654,0,0,0.012239,no
0.005267,0.021654,0.03125,0,0.012239,no
0.003977,0.023177,0.0625,0,0.012239,no
0.005396,0.022307,0.03125,0,0.012239,no
0.010174,0.021219,0,0,0.012239,no
0.005861,0.023721,0.0625,0,0.012239,yes
0.002576,0.011099,0.09375,0.333333,0.00914,yes
0.00244,0.003373,0.15625,0.333333,0.001704,no
0.001084,0.001088,0.0625,0.333333,0.001084,no
0.001084,0.000762,0,0,0.001084,no
0,0,0,0,0,no
0.001704,0.002067,0,0.333333,0.002014,no
0.00253,0.005005,0.1875,0.333333,0.002014,yes
0.001755,0.003591,0.09375,0,0.002014,yes
0.00031,0.000109,0,0,0.00031,no
0.000465,0.000653,0,0,0.00062,no
0.000878,0.001306,0.125,0.666667,0.001084,no
0.000155,0.000109,0.03125,0,0.000155,no
0,0,0,0,0,no
0,0,0,0,0,no
0,0,0,0,0,no
0.001394,0.000871,0,0,0.001394,no
0.000593,0.00185,0,0,0.001394,no
0.00093,0.001632,0.03125,0,0.001394,no
0.001239,0.00185,0.03125,0,0.001394,no
0.001284,0.003808,0.21875,0.666667,0.001084,yes
0,0,0,0.333333,0,no
0,0,0,0,0,no
0,0,0,0,0,no
0.00062,0.000218,0,0,0.00062,no
0.00031,0.000109,0,0,0.00031,no
0,0,0,0,0,no
0.000465,0.000218,0,0.333333,0.000465,no
0.004183,0.002938,0.0625,0.333333,0.004183,no
0.000775,0.000326,0,0,0.000775,no
0.001239,0.000653,0.03125,0,0.001239,no
0.003331,0.002285,0,0,0.002479,no
0.001472,0.001523,0,0,0.001549,no
0.001239,0.000435,0,0,0.001239,no
0.001859,0.001306,0,0,0.001859,no
0.001136,0.002285,0.125,0,0.001859,no
0.000155,0.000109,0,0,0.000155,no
0.00031,0.000109,0,0,0.00031,no
0,0,0,0,0,no
0,0,0,0,0,no
0,0,0.0625,0,0,no
0,0,0,0,0,no
0,0,0,0,0,no
0,0,0,0,0,no
0,0,0,0,0,no
0,0,0,0,0,no
0,0,0,0,0,no
0,0,0,0,0,no
0,0,0,0,0,no
0.003718,0.005223,0,0,0.005887,no
0.005887,0.004135,0,0,0.005887,no
0.005887,0.004135,0,0,0.005887,no
0.001394,0.000979,0,0,0.001394,no
0.005267,0.0037,0,0,0.005267,no
0.005267,0.0037,0,0,0.005267,no
0.005267,0.0037,0,0,0.005267,no
0.005267,0.0037,0,0,0.005267,no
0,0,0,0,0,no
0,0,0,0,0,no
0.002789,0.001959,0,0,0.002789,no
0.002789,0.001959,0,0,0.002789,no
0.002789,0.001959,0,0,0.002789,no
0.005887,0.004135,0,0,0.005887,no
0.005887,0.004135,0,0,0.005887,no
0.005887,0.004135,0,0,0.005887,no
0.005887,0.004135,0,0,0.005887,no
0,0,0,0,0,no
0,0,0,0,0,no
0,0,0,0,0,no
0,0,0,0,0,no
0,0,0,0,0,no
0,0,0,0,0,no
0,0,0,0,0,no
0,0,0,0,0,no
0,0,0,0,0,no
0,0,0,0,0,no
0.00062,0.000653,0.03125,0,0.00093,no
0,0,0,0,0,no
0,0,0,0,0,no
0.003253,0.002285,0,0,0.003253,no
0,0,0,0,0,yes
0.004183,0.002938,0,0,0.004183,yes
0.004183,0.002938,0,0,0.004183,no
0,0,0,0,0,no
0.005422,0.007617,0,0,0.005422,no
0.005422,0.007617,0,0,0.005422,no
0,0,0,0,0,no
0,0,0,0,0,no
0,0,0,0,0,no
0,0,0,0,0,no
0.00031,0.000109,0,0,0.00031,no
0,0,0,0,0,no
0.00031,0.000109,0,0,0.00031,no
0,0,0,0,0,no
0,0,0,0,0,no
0.001859,0.001306,0,0,0.001859,no
0.002169,0.001523,0,0,0.002169,no
0.002014,0.002829,0,0,0.002169,no
0,0,0,0,0,no
0,0,0,0,0,no
0,0,0,0,0,no
0,0,0,0,0,no
0,0,0,0,0,no
0,0,0,0,0,no
0,0,0,0,0,no
0,0,0,0,0,no
0,0,0,0,0,no
0.00031,0.000109,0,0,0.00031,no
0,0,0,0,0,no
0,0,0.03125,0,0,no
0,0,0.03125,0,0,no
0,0,0.03125,0,0,no
0,0,0.0625,0,0,no
0,0,0,0,0,no
0.002014,0.00272,0,0,0.003098,no
0.003098,0.002176,0.03125,0,0.003098,no
0,0,0,0,0,no
0.016421,0.011534,0,0,0.016421,no
0.016421,0.011534,0,0,0.016421,no
0.016421,0.011534,0,0,0.016421,no
0.016421,0.011534,0,0,0.016421,no
0.016421,0.011534,0,0,0.016421,no
0.016421,0.011534,0,0,0.016421,no
0.016421,0.011534,0,0,0.016421,no
0.016421,0.011534,0,0,0.016421,no
0.016421,0.011534,0,0,0.016421,no
0,0,0,0,0,no
0,0,0,0,0,no
0.004028,0.002829,0,0,0.004028,no
0.004028,0.002829,0,0,0.004028,no
0.007126,0.005005,0,0,0.007126,no
0.003718,0.005223,0,0,0.007126,no
0.004183,0.005658,0,0,0.007126,no
0.003873,0.005332,0,0,0.007126,no
0.00062,0.000435,0,0,0.00062,no
0.00031,0.000218,0,0,0.00031,no
0.002943,0.002067,0,0,0.002943,no
0.002943,0.002067,0,0,0.002943,no
0.003718,0.002612,0,0,0.003718,no
0.003718,0.002612,0,0,0.003718,no
0,0,0,0,0,no
0.00062,0.000435,0,0,0.00062,no
0.00062,0.000435,0,0,0.00062,no
0,0,0.03125,0,0,no
0.00031,0.000109,0.0625,0,0.00031,no
0,0,0,0,0,no
0.015957,0.011099,0,0,0.015957,no
0.015957,0.011099,0,0,0.015957,no
0.009527,0.013058,0.15625,0.333333,0.015957,no
0.015957,0.011099,0.0625,0,0.015957,no
0.005732,0.011534,0.125,0.333333,0.015957,no
0.005732,0.011534,0.125,0.666667,0.015957,no
0.005783,0.011861,0.09375,0.333333,0.015957,no
0.015957,0.011099,0.0625,0,0.015957,no
0.00062,0.000544,0.0625,0.666667,0.000465,no
0.000465,0.000435,0.0625,0.333333,0.000465,no
0.001936,0.002394,0.03125,0,0.003253,no
0.004183,0.002176,0.0625,0,0.003408,yes
0.000775,0.000544,0,0,0.000775,no
0.000387,0.000218,0,0,0.000465,no
0.001239,0.00185,0.0625,0.333333,0.001704,yes
0.001033,0.000871,0.0625,0,0.001704,yes
0.00093,0.001088,0,0,0.001549,no
0.00031,0.000109,0.03125,0,0.00031,no
0,0,0,0.333333,0,no
0.00253,0.003156,0.0625,0.333333,0.003408,yes
0.002943,0.000762,0,0,0.002943,yes
0.001549,0.002394,0.0625,0,0.003408,yes
0,0,0,0,0,no
0,0,0.03125,0,0,no
0,0,0,0,0,no
0,0,0,0,0,no
0.000775,0.000544,0,0,0.000775,no
0.001627,0.002285,0.03125,0,0.002479,no
0.000465,0.000218,0,0,0.000465,no
0.00031,0.000109,0.03125,0,0.00031,no
0.001239,0.001523,0.125,0.333333,0.001704,yes
0.00031,0.000109,0.03125,0,0.00031,yes
0.00031,0.000109,0.03125,0,0.00031,yes
0,0,0,0,0,no
0.00062,0.000435,0.0625,0.333333,0.00062,no
0.00062,0.000435,0.03125,0,0.00062,no
0.001549,0.000109,0,0,0.001549,no
0.001239,0.000109,0.03125,0,0.001239,no
0.001549,0.000109,0,0,0.001549,no
0,0,0,0,0,no
0,0,0,0,0,no
0,0,0.03125,0.666667,0,no
0,0,0,0,0,no
0,0,0,0,0,no
0,0,0.0625,0.666667,0,no
0.00062,0.000435,0.0625,0.333333,0.00062,no
0,0,0.03125,0,0,no
0,0,0,0,0,no
0.00062,0.000435,0.09375,0.666667,0.00062,no
0.00062,0.000435,0.0625,0.333333,0.00062,no
0,0,0,0,0,no
0.00031,0.000218,0,0,0.00031,no
0.014717,0.010337,0,0,0.014717,no
0.005473,0.01099,0.125,0,0.014717,no
0.005267,0.010664,0.09375,0,0.014717,yes
0.014717,0.010337,0.03125,0,0.014717,yes
0.014717,0.010337,0.0625,0,0.014717,yes
0,0,0,0,0,no
0,0,0.03125,0,0,no
0,0,0,0,0,no
0,0,0,0,0,no
0.000775,0.000544,0,0,0.000775,no
0.001704,0.002394,0.03125,0,0.002634,no
0.00031,0.000109,0.0625,0,0.00031,no
0.00062,0.000218,0,0,0.00062,no
0.000775,0.000218,0,0,0.000775,no
0.002169,0.001523,0,0,0.002169,no
0.001859,0.001197,0,0,0.001859,no
0.001859,0.001197,0,0,0.001859,no
0.001394,0.000979,0,0,0.001394,no
0.001239,0.001415,0,0,0.001394,no
0.00093,0.001197,0,0,0.001394,no
0.002014,0.000544,0,0,0.001084,no
0.001033,0.001306,0.125,0.333333,0.000775,no
0.00062,0.000218,0.0625,0,0.00062,no
0.00031,0.000109,0,0,0.00031,no
0.00031,0.000109,0,0,0.00031,no
0.002789,0.0037,0,0,0.005267,no
0.001963,0.003808,0,0,0.005267,no
0.00031,0.000109,0,0,0.00031,no
0.00031,0.000109,0,0,0.00031,no
0,0,0,0.333333,0,no
0.011619,0.008161,0,0,0.011619,no
0.011619,0.008161,0,0,0.011619,no
0.011619,0.008161,0,0,0.011619,no
0.011619,0.008161,0,0,0.011619,no
0.011619,0.008161,0,0,0.011619,yes
0.011619,0.008161,0,0,0.011619,yes
0.011619,0.008161,0,0,0.011619,no
0.011619,0.008161,0,0,0.011619,no
0.011619,0.008161,0,0,0.011619,no
0.007591,0.005223,0,0,0.007591,no
0.007591,0.005223,0,0,0.007591,no
0.007591,0.005223,0,0,0.007591,no
0.007591,0.005223,0,0,0.007591,no
0.001704,0.001197,0,0,0.001704,no
0.008598,0.006529,0.375,0.666667,0.005732,no
0.008753,0.010773,0.1875,0.333333,0.011309,no
0.011309,0.007943,0.03125,0,0.011309,no
0,0,0,0,0,no
0,0,0,0,0,no
0,0,0,0,0,no
0.001394,0.000979,0,0,0.001394,no
0.005422,0.003808,0,0,0.005422,no
0.005422,0.003808,0,0,0.005422,no
0.005422,0.003808,0,0,0.005422,no
0.005422,0.003808,0,0,0.005422,no
0.005422,0.003808,0,0,0.005422,no
0,0,0,0,0,no
0,0,0,0,0,no
0,0,0.0625,0.333333,0,no
0,0,0,0,0,no
0,0,0.03125,0,0,no
0,0,0.03125,0,0,no
0,0,0.0625,0,0,no
0,0,0.0625,0,0,no
0,0,0,0,0,no
0,0,0.0625,0,0,no
0,0,0,0,0,no
0,0,0,0,0,no
0.001859,0.001197,0.03125,0,0.001859,no
0.00031,0.000109,0.03125,0,0.00031,no
0,0,0.15625,0.333333,0,no
0,0,0.15625,0.333333,0,no
0,0,0.09375,0,0,no
0,0,0.0625,0.333333,0,no
0,0,0.03125,0,0,no
0.000775,0.000326,0.0625,0,0.000465,no
0,0,0.0625,0,0,no
0,0,0.09375,0.333333,0,no
0,0,0.09375,0.333333,0,no
0,0,0.09375,0.333333,0,no
0,0,0.09375,0,0,no
0,0,0.0625,0.333333,0,no
0.011774,0.001415,0.03125,0,0.011774,no
0,0,0,0.333333,0,no
0,0,0,0,0,no
0,0,0.1875,0.666667,0,no
0,0,0.15625,0.333333,0,no
0,0,0.0625,0.333333,0,no
0.011774,0.001415,0.03125,0,0.011774,no
0.011774,0.001415,0.03125,0,0.011774,no
0.005422,0.001088,0.0625,0,0.002324,yes
0.002634,0.001632,0.0625,0,0.002634,yes
0.003718,0.000326,0,0,0.003718,no
0,0,0,0,0,no
0,0,0,0,0,no
0,0,0,0,0,no
0,0,0.09375,0.666667,0,no
0,0,0.0625,0.333333,0,no
0,0,0,0,0,no
0,0,0,0,0,no
0,0,0,0,0,no
0,0,0,0,0,no
0.00093,0.001523,0.03125,0.333333,0.001394,no
0.00062,0.000218,0.34375,0.666667,0.00031,no
0,0,0.03125,0,0,no
0.00031,0.000109,0,0,0.00031,no
0.000697,0.000762,0,0,0.000775,no
0.00031,0.000109,0,0,0.00031,no
0.001007,0.000653,0.28125,0.333333,0.00093,no
0.002789,0.001959,0.25,0.333333,0.002789,no
0.001433,0.003482,0.3125,0.666667,0.001549,no
0.001239,0.002394,0.0625,0,0.002789,no
0,0,0.03125,0,0,no
0.013943,0.009684,0.15625,0.333333,0.013943,no
0,0,0.03125,0,0,no
0.013943,0.009684,0.03125,0,0.013943,no
0.013943,0.009684,0.125,0,0.013943,no
0.005473,0.010773,0.09375,0,0.013943,no
0.005371,0.010664,0.09375,0.333333,0.013943,no
0,0,0.09375,0.333333,0,no
0.000465,0.000218,0.09375,0.333333,0.000465,no
0,0,0.125,0.333333,0,no
0,0,0.03125,0,0,no
0,0,0,0,0,no
0.001549,0.000762,0.1875,0.333333,0.00093,no
0,0,0,0,0,no
0,0,0,0,0,no
0,0,0,0,0,no
0,0,0,0,0,no
0,0,0,0,0,no
0,0,0,0,0,no
0,0,0,0,0,no
0,0,0,0,0,no
0,0,0,0,0,no
0,0,0,0,0,no
0,0,0.03125,0,0,no
0,0,0,0,0,no
0,0,0,0,0,no
0,0,0.03125,0,0,no
0,0,0.03125,0,0,no
0,0,0.03125,0,0,no
0,0,0.03125,0,0,no
0,0,0,0,0,no
0,0,0,0,0,no
0,0,0,0,0,no
0,0,0,0,0,no
0,0,0.1875,0.333333,0,no
0,0,0.03125,0,0,no
0,0,0,0,0,no
0,0,0,0,0,no
0,0,0,0,0,no
0,0,0,0,0,no
0,0,0.15625,0.333333,0,no
0,0,0,0,0,no
0,0,0,0,0,no
0,0,0,0,0,no
0,0,0,0,0,no
0,0,0.09375,0,0,no
0,0,0.03125,0.333333,0,no
0,0,0,0,0,no
0,0,0.03125,0,0,no
0,0,0,0,0,no
0,0,0,0,0,no
0,0,0,0,0,no
0,0,0,0.333333,0,no
0,0,0,0.333333,0,no
0,0,0,0,0,no
0,0,0,0,0,no
0,0,0.0625,0,0,no
0,0,0,0,0,no
0,0,0.125,0.333333,0,no
0,0,0.3125,1,0,no
0,0,0,0,0,no
0,0,0,0,0,no
0,0,0,0,0,no
0,0,0,0,0,no
0,0,0,0,0,no
0,0,0,0,0,no
0,0,0,0,0,no
0,0,0,0,0,no
0,0,0,0,0,no
0,0,0,0,0,no
0,0,0.28125,0.333333,0,no
0,0,0,0,0,no
0,0,0,0,0,no
0,0,0,0,0,no
0,0,0,0,0,no
0,0,0,0,0,no
0,0,0,0,0,no
0,0,0,0,0,no
0,0,0,0,0,no
0,0,0,0,0,no
0,0,0,0,0,no
0,0,0,0,0,no
0,0,0,0,0,no
0,0,0,0,0,no
0,0,0,0,0,no
0,0,0,0,0,no
0,0,0,0,0,no
0,0,0,0,0,no
0,0,0,0,0,no
0,0,0,0,0,no
0,0,0,0,0,no
0,0,0,0,0,no
0,0,0,0,0,no
0,0,0,0,0,no
0,0,0,0,0,no
0,0,0,0,0,no
0,0,0,0,0,no
0,0,0,0,0,no
0,0,0,0,0,no
0,0,0,0,0,no
0,0,0,0,0,no
0,0,0,0,0,no
0,0,0,0,0,no
0,0,0,0,0,no
0,0,0.03125,0,0,no
0,0,0,0.333333,0,no
0,0,0,0.333333,0,no
0,0,0,0,0,no
0,0,0,0,0,no
0,0,0,0,0,no
0,0,0,0.333333,0,no
0,0,0,0,0,no
0,0,0,0,0,no
0,0,0,0,0,no
0,0,0,0,0,no
0,0,0,0,0,no
0,0,0,0,0,no
0,0,0,0,0,no
0,0,0,0,0,no
0,0,0,0,0,no
0,0,0,0,0,no
0,0,0,0,0,no
0,0,0.03125,0,0,no
0,0,0,0,0,no
0,0,0.03125,0,0,no
0,0,0.09375,0.333333,0,no
0,0,0,0,0,no
0,0,0,0,0,no
0,0,0,0,0,no
0,0,0,0,0,no
0,0,0,0,0,no
0,0,0,0,0,no
0,0,0,0,0,no
0,0,0.03125,0,0,no
0,0,0,0,0,no
0,0,0.09375,0,0,no
0,0,0.03125,0,0,no
0,0,0.0625,0,0,no
0,0,0,0,0,no
0,0,0.03125,0.333333,0,no
0,0,0,0,0,no
0,0,0,0,0,no
0,0,0,0,0,no
0,0,0,0,0,no
0,0,0,0,0,no
0,0,0,0,0,no
0,0,0,0,0,no
0,0,0,0,0,no
0.001239,0.000871,0.1875,0.333333,0.001239,no
0,0,0.09375,0,0,no
0,0,0.09375,0,0,no
0,0,0,0,0,no
0,0,0.03125,0,0,no
0,0,0,0,0,no
0,0,0,0,0,no
0,0,0.03125,0,0,no
0,0,0.03125,0,0,no
0.00031,0.000544,0,0,0.00031,no
0.001936,0.004244,0.09375,0.333333,0.003408,yes
0.001576,0.005876,0.0625,0.333333,0.003408,yes
0,0,0,0,0,yes
0.001188,0.002067,0.0625,0.666667,0.001084,no
0,0,0.03125,0,0,yes
0,0,0,0,0,yes
0.000736,0.001523,0.0625,0.666667,0.001084,no
0,0,0.03125,0,0,yes
0,0,0,0,0,yes
0.000775,0.000544,0.0625,0.666667,0.000775,no
0,0,0.03125,0,0,yes
0,0,0,0,0,yes
0.001549,0.000871,0,0,0.001549,no
0,0,0,0,0,no
0,0,0,0,0,no
0,0,0.03125,0,0,no
0,0,0,0,0,no
0,0,0.09375,0.333333,0,no
0,0,0.03125,0.333333,0,no
0.01007,0.007073,0,0,0.01007,no
0.01007,0.007073,0.03125,0,0.01007,no
0.01007,0.007073,0.03125,0,0.01007,no
0.00031,0.000109,0,0,0.00031,no
0,0,0,0,0,no
0,0,0,0,0,no
0.001007,0.003917,0.03125,0,0.002789,no
0.003873,0.00272,0,0,0.003873,no
0.001549,0.007073,0.03125,0,0.004183,no
0.002905,0.008161,0.03125,0,0.004183,no
0.002582,0.005441,0,0,0.004183,no
0.002479,0.001741,0,0,0.002479,no
0.00062,0.000218,0,0,0.00062,no
0.004415,0.011752,0.0625,0,0.010844,no
0.004454,0.011861,0.03125,0,0.010844,no
0.003486,0.008052,0.0625,0,0.010844,no
0.003977,0.007835,0,0,0.010844,no
0.004028,0.00827,0,0,0.010844,no
0.003292,0.00914,0,0,0.010844,no
0.010844,0.007617,0,0,0.010844,no
0.00062,0.000435,0,0,0.00062,no
0.002169,0.001088,0,0,0.002169,no
0.001627,0.001632,0,0,0.001859,no
0.000155,0.000109,0,0,0.000155,yes
0.000465,0.000109,0,0,0.000465,no
0.00031,0.000109,0.0625,0,0.00031,no
0.001472,0.002938,0.1875,0.333333,0.002014,no
0.000813,0.002067,0.125,0.333333,0.001394,no
0.000155,0.000109,0,0,0.000155,yes
0.002767,0.01197,1,0.666667,0.006971,no
0,0,0,0.333333,0,no
0,0,0.09375,0.666667,0,no
0,0,0,0,0,no
0,0,0,0,0,no
0,0,0,0,0,no
0,0,0,0,0,no
0,0,0,0,0,no
0,0,0,0,0,no
0,0,0,0,0,no
0,0,0,0,0,no
0,0,0,0,0,no
0.000465,0.000109,0.03125,0,0.000465,yes
0,0,0,0,0,no
0,0,0,0,0,no
0,0,0,0,0,no
0,0,0,0,0,no
0,0,0,0,0,no
0,0,0,0,0,no
0,0,0,0.333333,0,no
0,0,0,0,0,no
0,0,0,0.333333,0,no
0.010225,0.007182,0.03125,0.333333,0.010225,no
0.010225,0.007182,0.0625,0,0.010225,no
0.005267,0.007291,0.03125,0,0.010225,no
0.010225,0.007182,0,0,0.010225,no
0,0,0,0,0,no
0,0,0,0,0,no
0,0,0,0,0,no
0,0,0,0,0,no
0,0,0,0,0,no
0,0,0,0,0,no
0,0,0,0,0,no
0,0,0,0,0,no
0,0,0,0,0,no
0,0,0,0,0,no
0,0,0,0,0,no
0,0,0,0,0,no
0,0,0.03125,0,0,no
0,0,0.03125,0,0,no
0,0,0.03125,0,0,no
0.007436,0.005223,0.03125,0,0.007436,no
0,0,0.03125,0,0,no
0.007436,0.005223,0,0,0.007436,no
0.007436,0.005223,0,0,0.007436,no
0.129667,0.091077,0,0,0.129667,no
0.129667,0.091077,0,0,0.129667,no
0.044978,0.094233,0,0,0.129667,no
0.044978,0.094233,0,0,0.129667,no
0,0,0,0,0,no
0,0,0,0,0,no
0.058095,0.040805,0,0,0.058095,no
0.058095,0.040805,0,0,0.058095,no
0,0,0,0,0,no
0.058095,0.040805,0,0,0.058095,no
0.010689,0.007508,0,0,0.010689,no
0.010689,0.007508,0.09375,0,0.010689,no
0.010689,0.007508,0,0,0.010689,no
0.010689,0.007508,0,0,0.010689,no
0.010689,0.007508,0,0,0.010689,no
0.058095,0.040805,0,0,0.058095,no
0,0,0,0,0,no
0.010689,0.007508,0.03125,0,0.010689,no
0,0,0,0,0,no
0.010689,0.007508,0,0,0.010689,no
0.010689,0.007508,0.09375,0,0.010689,no
0.010689,0.007508,0,0,0.010689,no
0.010689,0.007508,0,0,0.010689,no
0.010689,0.007508,0,0,0.010689,no
0.058095,0.040805,0,0,0.058095,no
0,0,0,0,0,no
0.010689,0.007508,0.03125,0,0.010689,no
0.010689,0.007508,0,0,0.010689,no
0,0,0,0,0,no
0,0,0,0,0,no
0,0,0,0,0,no
0,0,0,0,0,no
0,0,0,0,0,no
0,0,0,0,0,no
0,0,0,0,0,no
0.058095,0.040805,0,0,0.058095,no
0.058095,0.040805,0,0,0.058095,no
0,0,0,0,0,no
0.058095,0.040805,0,0,0.058095,no
0,0,0,0,0,no
0,0,0,0,0,no
0,0,0,0,0,no
0,0,0,0,0,no
0,0,0,0,0,no
0.058095,0.040805,0,0,0.058095,no
0.058095,0.040805,0,0,0.058095,no
0.058095,0.040805,0.03125,0,0.058095,no
0.058095,0.040805,0.0625,0,0.058095,no
0.029667,0.041676,0,0,0.058095,no
0.029667,0.041676,0,0,0.058095,no
0.058095,0.040805,0,0,0.058095,no
0.058095,0.040805,0,0,0.058095,no
0.058095,0.040805,0,0,0.058095,no
0.058095,0.040805,0,0,0.058095,no
0.058095,0.040805,0,0,0.058095,no
0.058095,0.040805,0.03125,0,0.058095,no
0.058095,0.040805,0.03125,0,0.058095,no
0.058095,0.040805,0,0,0.058095,no
0.058095,0.040805,0,0,0.058095,no
0.058095,0.040805,0,0,0.058095,no
0.058095,0.040805,0,0,0.058095,no
0,0,0,0,0,no
0.058095,0.040805,0,0,0.058095,no
0.058095,0.040805,0,0,0.058095,no
0,0,0,0,0,no
0.058095,0.040805,0,0,0.058095,no
0.058095,0.040805,0,0,0.058095,no
0.058095,0.040805,0,0,0.058095,no
0.058095,0.040805,0.03125,0,0.058095,no
0.058095,0.040805,0,0,0.058095,no
0.058095,0.040805,0,0,0.058095,no
0.058095,0.040805,0,0,0.058095,no
0.058095,0.040805,0,0,0.058095,no
0.058095,0.040805,0,0,0.058095,no
0.058095,0.040805,0.03125,0,0.058095,no
0.058095,0.040805,0.03125,0,0.058095,no
0.058095,0.040805,0.03125,0,0.058095,no
0.058095,0.040805,0.03125,0,0.058095,no
0,0,0.125,0,0,no
0.058095,0.040805,0,0,0.058095,no
0.058095,0.040805,0.15625,0.333333,0.058095,no
0,0,0.03125,0,0,no
0,0,0,0,0,no
0,0,0,0,0,no
0,0,0,0,0,no
0,0,0.03125,0,0,no
0,0,0.03125,0,0,no
0,0,0,0,0,no
0,0,0,0,0,no
0,0,0,0,0,no
0,0,0,0,0,no
0,0,0,0,0,no
0,0,0,0,0,no
0,0,0,0,0,no
0,0,0,0,0,no
0,0,0,0,0,no
0,0,0,0,0,no
0,0,0,0,0,no
0,0,0,0,0,no
0,0,0,0,0,no
0,0,0,0,0,no
0,0,0,0,0,no
0,0,0,0,0,no
0,0,0,0,0,no
0,0,0.03125,0,0,no
0.007436,0.005223,0.03125,0,0.007436,no
0,0,0.03125,0,0,no
0,0,0.03125,0,0,no
0,0,0.03125,0,0,no
0.007436,0.005223,0,0,0.007436,no
0.007436,0.005223,0,0,0.007436,no
0.129667,0.091077,0,0,0.129667,no
0.129667,0.091077,0,0,0.129667,no
0.044978,0.094233,0,0,0.129667,no
0.044978,0.094233,0,0,0.129667,no
0.058095,0.040805,0,0,0.058095,no
0.058095,0.040805,0,0,0.058095,no
0.058095,0.040805,0.03125,0,0.058095,no
0.058095,0.040805,0.0625,0,0.058095,no
0.029667,0.041676,0,0,0.058095,no
0.029667,0.041676,0,0,0.058095,no
0.058095,0.040805,0,0,0.058095,no
0.058095,0.040805,0,0,0.058095,no
0.058095,0.040805,0,0,0.058095,no
0.058095,0.040805,0,0,0.058095,no
0.058095,0.040805,0,0,0.058095,no
0.058095,0.040805,0.03125,0,0.058095,no
0.058095,0.040805,0.03125,0,0.058095,no
0.058095,0.040805,0,0,0.058095,no
0.058095,0.040805,0,0,0.058095,no
0.058095,0.040805,0,0,0.058095,no
0.058095,0.040805,0,0,0.058095,no
0,0,0,0,0,no
0.058095,0.040805,0,0,0.058095,no
0.058095,0.040805,0,0,0.058095,no
0,0,0,0,0,no
0.058095,0.040805,0,0,0.058095,no
0.058095,0.040805,0,0,0.058095,no
0.058095,0.040805,0,0,0.058095,no
0.058095,0.040805,0.03125,0,0.058095,no
0.058095,0.040805,0,0,0.058095,no
0.058095,0.040805,0,0,0.058095,no
0.058095,0.040805,0,0,0.058095,no
0.058095,0.040805,0,0,0.058095,no
0.058095,0.040805,0,0,0.058095,no
0.058095,0.040805,0.03125,0,0.058095,no
0.058095,0.040805,0.03125,0,0.058095,no
0.058095,0.040805,0.03125,0,0.058095,no
0.058095,0.040805,0.03125,0,0.058095,no
0.000697,0.000979,0.46875,0.666667,0.00093,no
0.058095,0.040805,0,0,0.058095,no
0.058095,0.040805,0.15625,0.333333,0.058095,no
0,0,0,0,0,no
0,0,0,0,0,no
0,0,0,0,0,no
0,0,0,0,0,no
0,0,0,0,0,no
0,0,0,0,0,no
0,0,0,0,0,no
0,0,0,0,0,no
0,0,0,0,0,no
0,0,0,0,0,no
0,0,0,0,0,no
0,0,0,0,0,no
0,0,0,0,0,no
0,0,0,0,0,no
0,0,0,0,0,no
0,0,0,0,0,no
0,0,0,0,0,no
0,0,0,0,0,no
0,0,0.03125,0,0,no
0,0,0,0,0,no
0,0,0.03125,0,0,no
0,0,0.03125,0,0,no
0,0,0.03125,0,0,no
0,0,0.03125,0,0,no
0,0,0.0625,0,0,no
0,0,0.03125,0,0,no
0,0,0.0625,0,0,no
0,0,0.0625,0,0,no
0,0,0.03125,0,0,no
0,0,0.03125,0,0,no
0,0,0.03125,0,0,no
0,0,0.03125,0,0,no
0,0,0.03125,0,0,no
0,0,0,0,0,no
0,0,0.03125,0,0,no
0.007436,0.005223,0.03125,0,0.007436,no
0.007436,0.005223,0,0,0.007436,no
0.007436,0.005223,0,0,0.007436,no
0.007436,0.005223,0,0,0.007436,no
0.007436,0.005223,0.03125,0,0.007436,no
0.007436,0.005223,0,0,0.007436,no
0.007436,0.005223,0,0,0.007436,no
0.007436,0.005223,0.03125,0,0.007436,no
0,0,0,0,0,no
0.129667,0.091077,0,0,0.129667,no
0.129667,0.091077,0,0,0.129667,no
0.129667,0.091077,0.03125,0,0.129667,no
0.064988,0.091186,0,0,0.129667,no
0.044978,0.094233,0,0,0.129667,no
0.044978,0.094233,0,0,0.129667,no
0.06646,0.093362,0,0,0.129667,no
0.044411,0.093471,0,0,0.129667,no
0.129667,0.091077,0,0,0.129667,no
0.129667,0.091077,0.03125,0,0.129667,no
0.129667,0.091077,0,0,0.129667,no
0.129667,0.091077,0,0,0.129667,no
0.129667,0.091077,0,0,0.129667,no
0.129667,0.091077,0,0,0.129667,no
0.058095,0.040805,0,0,0.058095,no
0.058095,0.040805,0,0,0.058095,no
0,0,0,0,0,no
0.058095,0.040805,0,0,0.058095,no
0.129667,0.091077,0,0,0.129667,no
0.129667,0.091077,0.03125,0,0.129667,no
0.129667,0.091077,0.03125,0,0.129667,no
0.129667,0.091077,0,0,0.129667,no
0.129667,0.091077,0,0,0.129667,no
0.058095,0.040805,0,0,0.058095,no
0.058095,0.040805,0,0,0.058095,no
0.058095,0.040805,0.03125,0,0.058095,no
0.058095,0.040805,0.0625,0,0.058095,no
0.029667,0.041676,0,0,0.058095,no
0.029667,0.041676,0,0,0.058095,no
0.058095,0.040805,0,0,0.058095,no
0.058095,0.040805,0,0,0.058095,no
0.058095,0.040805,0,0,0.058095,no
0.058095,0.040805,0,0,0.058095,no
0.058095,0.040805,0,0,0.058095,no
0.058095,0.040805,0.03125,0,0.058095,no
0.058095,0.040805,0.03125,0,0.058095,no
0.058095,0.040805,0,0,0.058095,no
0.058095,0.040805,0,0,0.058095,no
0.058095,0.040805,0,0,0.058095,no
0.058095,0.040805,0,0,0.058095,no
0.129667,0.091077,0,0,0.129667,no
0.058095,0.040805,0,0,0.058095,no
0.058095,0.040805,0,0,0.058095,no
0,0,0,0,0,no
0.058095,0.040805,0,0,0.058095,no
0.058095,0.040805,0,0,0.058095,no
0.058095,0.040805,0,0,0.058095,no
0.058095,0.040805,0.03125,0,0.058095,no
0.058095,0.040805,0,0,0.058095,no
0.058095,0.040805,0,0,0.058095,no
0.058095,0.040805,0,0,0.058095,no
0.058095,0.040805,0,0,0.058095,no
0.058095,0.040805,0,0,0.058095,no
0.058095,0.040805,0.03125,0,0.058095,no
0.058095,0.040805,0.03125,0,0.058095,no
0.058095,0.040805,0.03125,0,0.058095,no
0.058095,0.040805,0.03125,0,0.058095,no
0.129667,0.091077,0.09375,0,0.129667,no
0.058095,0.040805,0,0,0.058095,no
0.058095,0.040805,0.15625,0.333333,0.058095,no
0.129667,0.091077,0,0,0.129667,no
0.129667,0.091077,0.03125,0,0.129667,no
0.129667,0.091077,0.03125,0,0.129667,no
0.129667,0.091077,0,0,0.129667,no
0.129667,0.091077,0,0,0.129667,no
0.129667,0.091077,0,0,0.129667,no
0.129667,0.091077,0,0,0.129667,no
0.129667,0.091077,0,0,0.129667,no
0.129667,0.091077,0,0,0.129667,no
0.117583,0.16518,0,0,0.129667,no
0.1055,0.074102,0,0,0.1055,no
0.1055,0.074102,0,0,0.1055,no
0.129667,0.091077,0,0,0.129667,no
0.129667,0.091077,0,0,0.129667,no
0.058095,0.040805,0,0,0.058095,no
0.058095,0.040805,0,0,0.058095,no
0,0,0,0,0,no
0.058095,0.040805,0,0,0.058095,no
0.117583,0.16518,0,0,0.129667,no
0.1055,0.074102,0,0,0.1055,no
0.1055,0.074102,0,0,0.1055,no
0.058095,0.040805,0,0,0.058095,no
0.058095,0.040805,0,0,0.058095,no
0.058095,0.040805,0.03125,0,0.058095,no
0.058095,0.040805,0.0625,0,0.058095,no
0.029667,0.041676,0,0,0.058095,no
0.029667,0.041676,0,0,0.058095,no
0.058095,0.040805,0,0,0.058095,no
0.058095,0.040805,0,0,0.058095,no
0.058095,0.040805,0,0,0.058095,no
0.058095,0.040805,0,0,0.058095,no
0.058095,0.040805,0,0,0.058095,no
0.058095,0.040805,0.03125,0,0.058095,no
0.058095,0.040805,0.03125,0,0.058095,no
0.058095,0.040805,0,0,0.058095,no
0.058095,0.040805,0,0,0.058095,no
0.058095,0.040805,0,0,0.058095,no
0.058095,0.040805,0,0,0.058095,no
0.129667,0.091077,0,0,0.129667,no
0.058095,0.040805,0,0,0.058095,no
0.058095,0.040805,0,0,0.058095,no
0,0,0,0,0,no
0.058095,0.040805,0,0,0.058095,no
0.058095,0.040805,0,0,0.058095,no
0.058095,0.040805,0,0,0.058095,no
0.058095,0.040805,0.03125,0,0.058095,no
0.058095,0.040805,0,0,0.058095,no
0.058095,0.040805,0,0,0.058095,no
0.058095,0.040805,0,0,0.058095,no
0.058095,0.040805,0,0,0.058095,no
0.058095,0.040805,0,0,0.058095,no
0.058095,0.040805,0.03125,0,0.058095,no
0.058095,0.040805,0.03125,0,0.058095,no
0.058095,0.040805,0.03125,0,0.058095,no
0.058095,0.040805,0.03125,0,0.058095,no
0.129667,0.091077,0.09375,0,0.129667,no
0.058095,0.040805,0,0,0.058095,no
0.058095,0.040805,0.15625,0.333333,0.058095,no
0.129667,0.091077,0.03125,0,0.129667,no
0.117583,0.16518,0,0,0.129667,no
0.1055,0.074102,0,0,0.1055,no
0.1055,0.074102,0,0,0.1055,no
0.053524,0.07519,0.03125,0,0.1055,no
0.053524,0.07519,0.03125,0,0.1055,no
0.1055,0.074102,0,0,0.1055,no
0.1055,0.074102,0,0,0.1055,no
0.053215,0.074538,0,0,0.1055,no
0.1055,0.074102,0,0,0.1055,no
0.1055,0.074102,0.03125,0,0.1055,no
0.1055,0.074102,0,0,0.1055,no
0.1055,0.074102,0.03125,0,0.1055,no
0.1055,0.074102,0,0,0.1055,no
0.1055,0.074102,0.03125,0,0.1055,no
0,0,0,0,0,no
0.000775,0.000544,0.03125,0,0.000775,no
0.053989,0.075843,0,0,0.1055,no
0.1055,0.074102,0,0,0.1055,no
0.058095,0.040805,0,0,0.058095,no
0.058095,0.040805,0,0,0.058095,no
0,0,0,0,0,no
0.058095,0.040805,0,0,0.058095,no
0.1055,0.074102,0,0,0.1055,no
0.1055,0.074102,0.03125,0,0.1055,no
0.1055,0.074102,0.03125,0,0.1055,no
0.1055,0.074102,0,0,0.1055,no
0.1055,0.074102,0.03125,0,0.1055,no
0.1055,0.074102,0.03125,0,0.1055,no
0.1055,0.074102,0,0,0.1055,no
0.1055,0.074102,0.03125,0,0.1055,no
0.1055,0.074102,0.03125,0,0.1055,no
0,0,0,0,0,no
0.000775,0.000544,0.03125,0,0.000775,no
0.1055,0.074102,0.03125,0,0.1055,no
0.058095,0.040805,0,0,0.058095,no
0.058095,0.040805,0,0,0.058095,no
0.058095,0.040805,0.03125,0,0.058095,no
0.058095,0.040805,0.0625,0,0.058095,no
0.029667,0.041676,0,0,0.058095,no
0.029667,0.041676,0,0,0.058095,no
0.058095,0.040805,0,0,0.058095,no
0.058095,0.040805,0,0,0.058095,no
0.058095,0.040805,0,0,0.058095,no
0.058095,0.040805,0,0,0.058095,no
0.058095,0.040805,0,0,0.058095,no
0.058095,0.040805,0.03125,0,0.058095,no
0.058095,0.040805,0.03125,0,0.058095,no
0.058095,0.040805,0,0,0.058095,no
0.058095,0.040805,0,0,0.058095,no
0.058095,0.040805,0,0,0.058095,no
0.058095,0.040805,0,0,0.058095,no
0.1055,0.074102,0,0,0.1055,no
0.058095,0.040805,0,0,0.058095,no
0.058095,0.040805,0,0,0.058095,no
0,0,0,0,0,no
0.058095,0.040805,0,0,0.058095,no
0.058095,0.040805,0,0,0.058095,no
0.058095,0.040805,0,0,0.058095,no
0.058095,0.040805,0.03125,0,0.058095,no
0.058095,0.040805,0,0,0.058095,no
0.058095,0.040805,0,0,0.058095,no
0.058095,0.040805,0,0,0.058095,no
0.058095,0.040805,0,0,0.058095,no
0.058095,0.040805,0,0,0.058095,no
0.058095,0.040805,0.03125,0,0.058095,no
0.058095,0.040805,0.03125,0,0.058095,no
0.058095,0.040805,0.03125,0,0.058095,no
0.058095,0.040805,0.03125,0,0.058095,no
0.1055,0.074102,0.15625,0,0.1055,no
0.058095,0.040805,0,0,0.058095,no
0.058095,0.040805,0.15625,0.333333,0.058095,no
0.1055,0.074102,0,0,0.1055,no
0.1055,0.074102,0.03125,0,0.1055,no
0.1055,0.074102,0.03125,0,0.1055,no
0.1055,0.074102,0,0,0.1055,no
0.1055,0.074102,0,0,0.1055,no
0.1055,0.074102,0,0,0.1055,no
0.1055,0.074102,0.03125,0,0.1055,no
0.1055,0.074102,0.03125,0,0.1055,no
0.1055,0.074102,0,0,0.1055,no
0.1055,0.074102,0,0,0.1055,no
0.1055,0.074102,0,0,0.1055,no
0.1055,0.074102,0.03125,0,0.1055,no
0.1055,0.074102,0.03125,0,0.1055,no
0.1055,0.074102,0,0,0.1055,no
0,0,0,0,0,no
0,0,0,0,0,no
0.000775,0.000544,0.03125,0,0.000775,no
0,0,0.03125,0,0,no
0,0,0,0,0,no
0,0,0,0,0,no
0.058095,0.040805,0,0,0.058095,no
0.058095,0.040805,0.03125,0,0.058095,no
0.058095,0.040805,0,0,0.058095,no
0.058095,0.040805,0,0,0.058095,no
0.058095,0.040805,0,0,0.058095,no
0.058095,0.040805,0,0,0.058095,no
0,0,0,0,0,no
0.058095,0.040805,0,0,0.058095,no
0.058095,0.040805,0,0,0.058095,no
0.058095,0.040805,0.03125,0,0.058095,no
0.02928,0.041023,0.03125,0,0.058095,no
0.058095,0.040805,0,0,0.058095,no
0.058095,0.040805,0,0,0.058095,no
0.058095,0.040805,0.03125,0,0.058095,no
0.058095,0.040805,0.0625,0,0.058095,no
0.029667,0.041676,0,0,0.058095,no
0.029667,0.041676,0,0,0.058095,no
0.058095,0.040805,0,0,0.058095,no
0.058095,0.040805,0,0,0.058095,no
0.058095,0.040805,0,0,0.058095,no
0.058095,0.040805,0,0,0.058095,no
0.058095,0.040805,0,0,0.058095,no
0.058095,0.040805,0.03125,0,0.058095,no
0.058095,0.040805,0.03125,0,0.058095,no
0.058095,0.040805,0,0,0.058095,no
0.058095,0.040805,0,0,0.058095,no
0.058095,0.040805,0,0,0.058095,no
0.058095,0.040805,0,0,0.058095,no
0.058095,0.040805,0,0,0.058095,no
0.058095,0.040805,0,0,0.058095,no
0.058095,0.040805,0,0,0.058095,no
0,0,0,0,0,no
0.058095,0.040805,0,0,0.058095,no
0.058095,0.040805,0,0,0.058095,no
0.058095,0.040805,0,0,0.058095,no
0.058095,0.040805,0.03125,0,0.058095,no
0.058095,0.040805,0,0,0.058095,no
0.058095,0.040805,0,0,0.058095,no
0.058095,0.040805,0,0,0.058095,no
0.058095,0.040805,0,0,0.058095,no
0.058095,0.040805,0,0,0.058095,no
0.058095,0.040805,0.03125,0,0.058095,no
0.058095,0.040805,0.03125,0,0.058095,no
0.058095,0.040805,0.03125,0,0.058095,no
0.058095,0.040805,0.03125,0,0.058095,no
0.058095,0.040805,0.0625,0,0.058095,no
0.058095,0.040805,0,0,0.058095,no
0.058095,0.040805,0.15625,0.333333,0.058095,no
0.058095,0.040805,0,0,0.058095,no
0.058095,0.040805,0.03125,0,0.058095,no
0.058095,0.040805,0.03125,0,0.058095,no
0.058095,0.040805,0,0,0.058095,no
0.058095,0.040805,0,0,0.058095,no
0.058095,0.040805,0,0,0.058095,no
0.058095,0.040805,0.03125,0,0.058095,no
0.058095,0.040805,0,0,0.058095,no
0.058095,0.040805,0,0,0.058095,no
0.058095,0.040805,0,0,0.058095,no
0.058095,0.040805,0,0,0.058095,no
0,0,0,0,0,no
0.058095,0.040805,0,0,0.058095,no
0.058095,0.040805,0,0,0.058095,no
0.058095,0.040805,0.03125,0,0.058095,no
0.02928,0.041023,0.03125,0,0.058095,no
0.058095,0.040805,0,0,0.058095,no
0.058095,0.040805,0,0,0.058095,no
0.058095,0.040805,0.03125,0,0.058095,no
0.058095,0.040805,0.0625,0,0.058095,no
0.029667,0.041676,0,0,0.058095,no
0.029667,0.041676,0,0,0.058095,no
0.058095,0.040805,0,0,0.058095,no
0.058095,0.040805,0,0,0.058095,no
0.058095,0.040805,0,0,0.058095,no
0.058095,0.040805,0,0,0.058095,no
0.058095,0.040805,0,0,0.058095,no
0.058095,0.040805,0.03125,0,0.058095,no
0.058095,0.040805,0.03125,0,0.058095,no
0.058095,0.040805,0,0,0.058095,no
0.058095,0.040805,0,0,0.058095,no
0.058095,0.040805,0,0,0.058095,no
0.058095,0.040805,0,0,0.058095,no
0.058095,0.040805,0,0,0.058095,no
0.058095,0.040805,0,0,0.058095,no
0.058095,0.040805,0,0,0.058095,no
0,0,0,0,0,no
0.058095,0.040805,0,0,0.058095,no
0.058095,0.040805,0,0,0.058095,no
0.058095,0.040805,0,0,0.058095,no
0.058095,0.040805,0.03125,0,0.058095,no
0.058095,0.040805,0,0,0.058095,no
0.058095,0.040805,0,0,0.058095,no
0.058095,0.040805,0,0,0.058095,no
0.058095,0.040805,0,0,0.058095,no
0.058095,0.040805,0,0,0.058095,no
0.058095,0.040805,0.03125,0,0.058095,no
0.058095,0.040805,0.03125,0,0.058095,no
0.058095,0.040805,0.03125,0,0.058095,no
0.058095,0.040805,0.03125,0,0.058095,no
0.058095,0.040805,0.0625,0,0.058095,no
0.058095,0.040805,0,0,0.058095,no
0.058095,0.040805,0.15625,0.333333,0.058095,no
0.058095,0.040805,0,0,0.058095,no
0.058095,0.040805,0.03125,0,0.058095,no
0.058095,0.040805,0.03125,0,0.058095,no
0.058095,0.040805,0,0,0.058095,no
0.058095,0.040805,0,0,0.058095,no
0,0,0,0,0,no
0.001239,0.000871,0,0.333333,0.001239,no
0,0,0,0,0,no
0.00031,0.000109,0,0,0.00031,no
0,0,0,0,0,no
0,0,0,0,0,no
0,0,0,0,0,yes
0.003253,0.002285,0,0,0.003253,no
0.001936,0.002503,0,0,0.003253,no
0.000542,0.000653,0.15625,0.333333,0.000775,yes
0,0,0.0625,0,0,no
0,0,0.0625,0,0,no
0,0,0.5,0.666667,0,yes
0.00031,0.000109,0,0,0.00031,no
0,0,0,0,0,no
0.00062,0.000653,0.0625,0,0.00093,no
0.00093,0.000653,0.03125,0,0.00093,no
0.001084,0.000762,0,0,0.001084,no
0.00031,0.000109,0.03125,0,0.00031,no
0,0,0.03125,0,0,no
0,0,0.03125,0,0,no
0.00062,0.000109,0.21875,0.333333,0.00062,no
0,0,0.0625,0,0,no
0.000697,0.000435,0.125,0,0.000775,no
0.000775,0.000653,0.0625,0,0.00093,no
0,0,0,0,0,no
0,0,0,0,0,no
0,0,0,0,0,no
0,0,0,0,0,no
0,0,0.03125,0,0,no
0,0,0,0,0,no
0.001084,0.001415,0,0,0.001239,no
0.001239,0.000762,0,0.333333,0.001239,no
0.001084,0.00272,0.09375,0.333333,0.001239,yes
0,0,0.0625,0,0,yes
0.003032,0.007726,0.1875,0.333333,0.002324,yes
0.002892,0.008705,0.09375,0.666667,0.006197,yes
0,0,0.0625,0,0,yes
0.002851,0.007617,0.0625,0.666667,0.006197,yes
0,0,0.0625,0,0,yes
0.000465,0.000653,0.09375,0.333333,0.000465,yes
0,0,0.0625,0,0,yes
0.001549,0.001088,0,0,0.001549,no
0.00062,0.000435,0,0,0.00062,yes
0.00093,0.001088,0.125,0,0.00093,no
0.000465,0.000871,0.03125,0,0.00062,yes
0.000723,0.001088,0.09375,0,0.000775,yes
0.00031,0.000435,0.0625,0.333333,0.000465,yes
0.000723,0.001088,0.09375,0,0.000775,yes
0.000542,0.000544,0,0,0.00062,no
0.000387,0.000326,0.03125,0,0.000465,yes
0.001332,0.003591,0.0625,0,0.001859,yes
0.000516,0.000653,0.15625,0.333333,0.00031,yes
0.000891,0.001741,0.15625,0.333333,0.000775,no
0.000723,0.001088,0.09375,0,0.000775,yes
0.000361,0.000653,0.25,0.333333,0.000465,no
0.001394,0.000762,0.21875,0.333333,0.001084,no
0.000155,0.000109,0,0,0.000155,no
0,0,0,0,0,no
0.000465,0.000544,0,0,0.00062,no
0,0,0,0,0,no
0,0,0.03125,0,0,no
0,0,0,0,0,no
0,0,0,0,0,yes
0,0,0,0,0,no
0,0,0.03125,0,0,no
0,0,0.03125,0,0,no
0,0,0,0,0,no
0,0,0,0,0,no
0,0,0,0,0,no
0,0,0,0,0,no
0,0,0,0,0,no
0,0,0.03125,0,0,no
0,0,0.03125,0,0,no
0,0,0,0,0,no
0,0,0.03125,0,0,no
0,0,0.03125,0,0,no
0,0,0,0,0,no
0,0,0,0,0,no
0,0,0,0,0,no
0,0,0.03125,0,0,yes
0,0,0,0,0,no
0.00031,0.000109,0.0625,0,0.00031,no
0,0,0,0,0,no
0,0,0,0,0,no
0,0,0,0,0,no
0,0,0,0,0,no
0,0,0,0,0,no
0.00093,0.000326,0,0,0.00062,no
0,0,0,0,0,no
0.007075,0.009684,0.125,0.333333,0.010999,yes
0.006352,0.008814,0.03125,0,0.010999,no
0,0,0.09375,0,0,yes
0.006197,0.008596,0.1875,0.333333,0.010999,yes
0,0,0.09375,0,0,yes
0.008288,0.011534,0.375,0.666667,0.010999,yes
0,0,0.09375,0,0,yes
0,0,0.09375,0,0,yes
0,0,0.03125,0,0,yes
0.001239,0.000544,0,0,0.001239,yes
0.002634,0.000871,0.03125,0,0.001394,no
0.000775,0.000435,0,0,0.000775,no
0.00031,0.000109,0,0,0.00031,yes
0,0,0.0625,0.333333,0,yes
0.021998,0.015452,0,0,0.021998,no
0.021998,0.015452,0.28125,0.333333,0.021998,yes
0.021998,0.015452,0.28125,0.333333,0.021998,yes
0.021998,0.015452,0.21875,0.333333,0.021998,yes
0.021998,0.015452,0,0,0.021998,no
0,0,0.0625,0,0,no
0,0,0.0625,0,0,yes
0,0,0,0,0,no
0.005267,0.000871,0,0,0.008056,no
0.008056,0.000435,0,0,0.008056,no
0,0,0.03125,0,0,no
0.000775,0.000435,0,0,0.000775,no
0.000775,0.000435,0.1875,0.333333,0.000775,no
0.002169,0.000653,0.0625,0,0.002169,yes
0.014562,0.010229,0,0,0.014562,no
0.014562,0.010229,0.125,0,0.014562,no
0.014562,0.010229,0.1875,0.333333,0.014562,yes
0.014562,0.010229,0.1875,0.333333,0.014562,yes
0.014562,0.010229,0.1875,0.333333,0.014562,yes
0.003253,0.000871,0.0625,0,0.001704,no
0.00031,0.000109,0.03125,0,0.00031,no
0,0,0.0625,0,0,no
0,0,0,0,0,no
0.00093,0.000653,0.03125,0.333333,0.00062,no
0.00031,0.000218,0.03125,0,0.00031,no
0.000232,0.000218,0,0,0.00031,no
0,0,0,0,0,no
0,0,0,0,0,no
0.000852,0.000871,0.09375,0.333333,0.000465,yes
0,0,0,0,0,no
0.000775,0.000544,0,0,0.000775,no
0,0,0,0,0,no
0,0,0,0,0,no
0,0,0,0,0,no
0,0,0.0625,0,0,no
0,0,0.15625,0.333333,0,no
0,0,0.0625,0.333333,0,no
0,0,0,0,0,no
0,0,0,0,0,no
0.001239,0.000326,0.09375,0.333333,0.001239,no
0.001239,0.000326,0.03125,0.333333,0.001239,no
0.001239,0.000326,0.03125,0,0.001239,no
0,0,0,0,0,no
0,0,0.0625,0,0,no
0,0,0,0,0,no
0,0,0,0,0,no
0,0,0,0,0,no
0,0,0,0,0,no
0.00031,0.000109,0,0,0.00031,no
0.00031,0.000109,0,0,0.00031,no
0.00031,0.000109,0,0,0.00031,no
0.00031,0.000109,0,0,0.00031,no
0.001704,0.001197,0,0,0.001704,no
0.000542,0.000544,0,0,0.000465,no
0,0,0,0,0,no
0.010225,0.007182,0.21875,0.333333,0.010225,yes
0.007126,0.007508,0.28125,0.333333,0.006197,yes
0.010225,0.007182,0,0,0.010225,no
0.010225,0.007182,0.21875,0.333333,0.010225,yes
0.010225,0.007182,0.21875,0.333333,0.010225,yes
0.001123,0.002285,0.15625,0.333333,0.001549,yes
0.001084,0.000762,0,0,0.001084,no
0,0,0.03125,0,0,no
0,0,0,0,0,no
0,0,0,0,0,no
0,0,0,0,0,no
0,0,0,0,0,no
0,0,0,0,0,no
0,0,0.125,0.333333,0,no
0,0,0.0625,0,0,no
0,0,0.0625,0,0,no
0,0,0.0625,0,0,no
0,0,0,0,0,no
0,0,0,0,0,no
0,0,0,0,0,no
0,0,0.09375,0,0,no
0,0,0.0625,0,0,no
0,0,0.09375,0,0,no
0,0,0.03125,0,0,no
0.00031,0.000109,0,0,0.00031,no
0.000878,0.000979,0.125,0.333333,0.000465,no
0,0,0,0,0,no
0,0,0,0,0,no
0,0,0,0,0,no
0,0,0.0625,0,0,no
0.00031,0.000109,0.09375,0,0.00031,no
0,0,0.125,0,0,no
0.00031,0.000109,0,0,0.00031,no
0.00031,0.000109,0,0,0.00031,no
0,0,0.03125,0,0,no
0,0,0,0,0,no
0,0,0,0,0,no
0,0,0,0,0,no
0,0,0.03125,0,0,no
0,0,0,0,0,no
0,0,0.09375,0.333333,0,no
0,0,0,0,0,no
0,0,0,0,0,no
0,0,0,0,0,no
0,0,0,0,0,no
0,0,0,0,0,no
0,0,0,0,0,no
0,0,0,0,0,no
0,0,0,0,0,no
0,0,0,0,0,no
0,0,0,0,0,no
0,0,0,0,0,no
0,0,0,0,0,no
0,0,0,0,0,no
0,0,0,0,0,no
0,0,0,0,0,no
0,0,0,0,0,no
0,0,0,0,0,no
0,0,0,0,0,no
0,0,0.1875,0.333333,0,no
0,0,0,0,0,no
0,0,0.3125,0.666667,0,no
0,0,0.25,0.333333,0,no
0,0,0.0625,0.333333,0,no
0,0,0,0,0,no
0,0,0,0,0,no
0,0,0.125,0.333333,0,no
0,0,0.09375,0,0,no
0.005112,0.003591,0.15625,0.333333,0.005112,no
0.003176,0.003808,0,0,0.005112,no
0.003331,0.003917,0,0,0.005112,no
0.004214,0.005876,0.0625,0.333333,0.006352,no
0.003304,0.007182,0.0625,0,0.004957,no
0.002922,0.007835,0.0625,0.333333,0.004957,no
0.001859,0.003373,0.125,0.333333,0.002014,no
0.004183,0.002612,0,0,0.004183,no
0.004183,0.002612,0.03125,0,0.004183,no
0.0016,0.002829,0.0625,0,0.004183,no
0.00031,0.000109,0.1875,0.333333,0.00031,no
0,0,0,0,0,no
0.00031,0.000109,0.0625,0,0.00031,no
0.001239,0.000435,0.03125,0,0.00062,yes
0.001859,0.001306,0,0,0.001859,no
0,0,0.0625,0,0,no
0,0,0.03125,0,0,no
0.00031,0.000109,0.03125,0,0.00031,no
0,0,0,0,0,no
0,0,0,0,0,no
0,0,0.03125,0,0,no
0.003021,0.004244,0.03125,0,0.004802,no
0.004802,0.003373,0,0,0.004802,no
0.004802,0.003373,0,0,0.004802,yes
0,0,0,0,0,yes
0,0,0,0,0,no
0,0,0.0625,0,0,no
0,0,0.09375,0.333333,0,no
0,0,0.0625,0,0,no
0.003563,0.002503,0.0625,0,0.003563,no
0.00062,0.000435,0.03125,0,0.00031,no
0.00031,0.000109,0,0,0.00031,no
0,0,0,0,0,no
0,0,0.03125,0.333333,0,no
0,0,0,0,0,no
0,0,0,0,0,no
0,0,0,0,0,no
0,0,0,0,0,no
0,0,0.03125,0,0,no
0,0,0.0625,0,0,no
0.00062,0.000218,0,0,0.00062,no
0,0,0,0,0,no
0.00883,0.006202,0,0,0.00883,no
0.00883,0.006202,0.03125,0,0.00883,no
0.00883,0.006202,0.03125,0,0.00883,no
0,0,0,0,0,no
0,0,0,0,0,no
0,0,0.0625,0.666667,0,no
0,0,0.03125,0,0,no
0,0,0.03125,0,0,no
0.008107,0.017084,0.09375,0.333333,0.013168,no
0.009527,0.013384,0.03125,0,0.013168,no
0.009218,0.012949,0.0625,0.333333,0.013168,no
0.009218,0.012949,0.0625,0.333333,0.013168,no
0.009218,0.012949,0.03125,0,0.013168,no
0,0,0.0625,0,0,no
0,0,0.0625,0.333333,0,no
0,0,0,0,0,no
0,0,0,0,0,no
0,0,0,0,0,no
0,0,0,0,0,no
0,0,0,0,0,no
0,0,0,0,0,no
0,0,0,0,0,no
0,0,0,0,0,no
0,0,0,0,0,no
0,0,0.125,0.333333,0,no
0,0,0.03125,0,0,no
0,0,0,0,0,no
0,0,0,0,0,no
0,0,0,0,0,no
0,0,0,0,0,no
0,0,0,0,0,no
0,0,0,0,0,no
0,0,0,0,0,no
0,0,0,0,0,no
0,0,0,0,0,no
0.00031,0.000109,0,0.333333,0.00031,no
0.000465,0.000218,0,0,0.000465,no
0,0,0,0,0,no
0.003408,0.002394,0,0,0.003408,no
0.000155,0.000109,0,0,0.000155,no
0.002789,0.005767,0,0.333333,0.007126,no
0.003873,0.008052,0,0,0.007126,no
0,0,0,0.333333,0,no
0,0,0,0,0,no
0,0,0,0,0,no
0.00031,0.000109,0,0,0.00031,no
0,0,0,0,0,no
0,0,0,0,0,no
0.003873,0.00272,0,0,0.003873,no
0,0,0,0,0,no
0,0,0,0,0,no
0,0,0,0,0,no
0.002634,0.00185,0,0,0.002634,no
0,0,0,0,0,no
0,0,0,0,0,no
0,0,0,0.333333,0,no
0.00031,0.000435,0.0625,0.333333,0.00031,no
0.00031,0.000109,0,0.333333,0.00031,no
0,0,0.03125,0,0,no
0.000569,0.000653,0.1875,0.333333,0.00062,no
0.00031,0.000109,0,0.333333,0.00031,no
0,0,0,0,0,no
0.000658,0.000979,0.125,0.333333,0.000775,no
0.000697,0.000435,0.0625,0.666667,0.000775,no
0,0,0.0625,0,0,no
0.000414,0.000544,0.09375,0.333333,0.00031,no
0.00031,0.000109,0,0,0.00031,no
0,0,0.03125,0,0,no
0.001549,0.000979,0.03125,0,0.001549,no
0,0,0.03125,0,0,no
0.00031,0.000109,0.0625,0,0.00031,no
0,0,0,0,0,no
0.001859,0.001088,0.15625,0.333333,0.001549,no
0.001549,0.000979,0.09375,0,0.001549,no
0.001549,0.000979,0.03125,0,0.001549,no
0.00031,0.000109,0.125,0,0.00031,no
0,0,0,0,0,no
0.00031,0.000109,0,0,0.00031,no
0.00031,0.000109,0,0,0.00031,no
0,0,0,0,0,no
0,0,0,0,0,no
0.00031,0.000109,0.0625,0.333333,0.00031,no
0.000465,0.000218,0,0,0.00031,no
0,0,0,0,0,no
0.002014,0.001415,0.09375,0.333333,0.001859,no
0.006816,0.003808,0.03125,0.333333,0.004802,no
0.001704,0.001197,0,0,0.001704,no
0.001704,0.001197,0,0,0.001704,no
0,0,0.03125,0,0,no
0,0,0.03125,0,0,no
0,0,0,0,0,no
0,0,0,0,0,no
0,0,0,0,0,no
0,0,0,0,0,no
0,0,0,0,0,no
0,0,0,0,0,no
0,0,0,0,0,no
0,0,0,0,0,no
0,0,0,0,0,no
0,0,0,0,0,no
0.001239,0.002394,0,0,0.001859,no
0,0,0,0,0,no
0,0,0.03125,0,0,no
0.000775,0.000218,0,0,0.000775,no
0.001859,0.000653,0.0625,0,0.001859,no
0.001472,0.00185,0,0.333333,0.002169,no
0.002169,0.001523,0,0,0.002169,no
0.001239,0.001632,0,0,0.002169,no
0.002169,0.001523,0,0,0.002169,no
0.001704,0.001197,0,0,0.001704,no
0.001239,0.001523,0,0,0.001704,no
0.001704,0.001197,0,0,0.001704,no
0,0,0.09375,0,0,no
0,0,0.3125,0.666667,0,no
0,0,0,0,0,no
0,0,0.0625,0,0,no
0,0,0,0,0,no
0,0,0.0625,0,0,no
0,0,0,0,0,no
0,0,0,0,0,no
0,0,0,0,0,no
0,0,0,0,0,no
0,0,0,0,0,no
0,0,0,0,0,no
0,0,0,0,0,no
0,0,0,0,0,no
0,0,0,0,0,no
0,0,0,0,0,no
0,0,0,0,0,no
0,0,0,0,0,no
0,0,0,0,0,no
0,0,0,0,0,no
0,0,0,0,0,no
0,0,0,0,0,no
0,0,0.25,0.333333,0,no
0,0,0,0,0,no
0,0,0.15625,0.333333,0,no
0.001084,0.000544,0,0,0.001084,no
0.00031,0.000109,0,0,0.00031,no
0.001642,0.003373,0.03125,0,0.002789,no
0.001898,0.003156,0.03125,0,0.003253,no
0.002014,0.002067,0,0,0.002479,no
0,0,0,0,0,no
0.000465,0.000326,0,0,0.000465,no
0.000465,0.000109,0,0,0.000465,no
0,0,0,0,0,no
0,0,0,0,0,no
0.00062,0.000435,0,0,0.00062,no
0.001084,0.000326,0,0,0.001084,no
0.001084,0.001523,0.15625,0.333333,0.001239,no
0.001239,0.000871,0,0,0.001239,no
0,0,0,0,0,no
0.002169,0.001523,0,0,0.002169,no
0,0,0,0,0,no
0.006971,0.0037,0,0,0.009295,no
0.004996,0.010446,0,0,0.009295,no
0.002827,0.007291,0,0,0.007901,no
0.004105,0.005332,0,0,0.007901,no
0.007901,0.005223,0,0,0.007901,no
0.003021,0.002285,0,0,0.004802,no
0,0,0,0,0,no
0.001084,0.000326,0,0,0.001084,no
0.001627,0.002285,0.15625,0.333333,0.001084,no
0,0,0,0,0,no
0,0,0.0625,0,0,no
0.006816,0.004788,0.1875,0.333333,0.006816,no
0,0,0,0,0,no
0,0,0,0,0,no
0,0,0,0,0,no
0,0,0,0,0,no
0,0,0.03125,0,0,no
0,0,0,0,0,no
0,0,0,0,0,no
0,0,0,0,0,no
0,0,0,0,0,no
0,0,0,0,0,no
0,0,0.0625,0.333333,0,no
0,0,0,0,0,no
0,0,0,0,0,no
0,0,0,0,0,no
0,0,0,0,0,no
0,0,0,0,0,no
0,0,0,0,0,no
0,0,0,0,0,no
0,0,0,0,0,no
0,0,0,0,0,no
0,0,0,0,0,no
0,0,0,0,0,no
0,0,0,0,0,no
0,0,0,0,0,no
0,0,0,0,0,no
0,0,0,0,0,no
0,0,0,0,0,no
0,0,0,0,0,no
0.00062,0.000435,0,0,0.00062,no
0.00062,0.000435,0,0,0.00062,no
0.000465,0.000218,0,0,0.000465,no
0.000542,0.001088,0.03125,0,0.001084,no
0.00062,0.000435,0,0,0.00062,no
0,0,0,0,0,no
0,0,0,0,0,no
0,0,0,0,0,no
0,0,0,0,0,no
0.001239,0.000218,0.03125,0,0.001239,no
0.000465,0.000109,0,0,0.000465,no
0.001084,0.001959,0.28125,0.333333,0.00093,no
0.000775,0.000326,0,0,0.000465,no
0.000775,0.000871,0,0,0.00062,no
0.00457,0.002394,0.03125,0,0.006352,no
0.007746,0.000871,0,0,0.014253,no
0.001239,0.00185,0.03125,0,0.001394,no
0.00031,0.000218,0,0,0.00031,no
0.00031,0.000109,0,0,0.00031,no
0.000387,0.000326,0,0,0.000465,no
0.000878,0.000871,0,0,0.001549,no
0.001445,0.004461,0.3125,0.666667,0.002479,no
0.001952,0.002938,0.125,0.666667,0.005267,no
0,0,0,0,0,no
0.00093,0.000871,0,0,0.001394,no
0.001046,0.001959,0.0625,0,0.001394,no
0.00031,0.000109,0,0.333333,0.00031,no
0.000387,0.000326,0,0.333333,0.000465,no
0.000878,0.001306,0.03125,0.333333,0.001239,no
0.00031,0.000218,0,0,0.00031,no
0.000465,0.000544,0.0625,0.333333,0.000465,no
0.001084,0.000435,0,0,0.00062,no
0.000465,0.000218,0,0.333333,0.000465,no
0.000775,0.000871,0.03125,0.666667,0.00062,no
0.00031,0.000109,0,0,0.00031,no
0.000465,0.000218,0,0,0.000465,no
0.001084,0.000762,0.03125,0,0.001084,no
0.014098,0.001306,0.03125,0,0.025562,no
0.00093,0.000544,0,0,0.00093,no
0,0,0,0,0,no
0.001332,0.004244,0,0,0.003873,no
0.001136,0.004135,0.03125,0,0.003873,no
0.008005,0.0037,0,0,0.017351,no
0.003873,0.00272,0.09375,0,0.003873,no
0.00031,0.000218,0,0,0.00031,no
0.004376,0.002285,0.03125,0,0.007901,no
0,0,0,0,0,no
0.000775,0.000544,0.1875,0.333333,0.000775,no
0,0,0,0,0,no
0,0,0.03125,0,0,no
0,0,0,0,0,no
0.001549,0.001088,0,0,0.001549,no
0,0,0,0,0,no
0.000852,0.000871,0.125,0.333333,0.00093,no
0,0,0,0,0,no
0,0,0,0,0,no
0,0,0,0,0,no
0,0,0,0,0,no
0,0,0,0,0,no
0,0,0,0,0,no
0,0,0,0,0,no
0,0,0.03125,0.333333,0,no
0,0,0,0,0,no
0,0,0,0,0,no
0,0,0,0,0,no
0,0,0,0,0,no
0,0,0,0,0,no
0,0,0,0,0,no
0,0,0.03125,0,0,no
0,0,0.03125,0.333333,0,no
0,0,0.0625,0,0,no
0,0,0.0625,0,0,no
0,0,0.125,0.333333,0,no
0,0,0.03125,0,0,no
0,0,0,0,0,no
0,0,0,0,0,no
0,0,0,0,0,no
0,0,0,0,0,no
0,0,0,0,0,no
0,0,0.0625,0,0,no
0,0,0.09375,0.333333,0,no
0,0,0,0,0,no
0,0,0,0,0,no
0,0,0,0,0,no
0,0,0,0,0,no
0,0,0,0,0,no
0,0,0.03125,0.333333,0,no
0,0,0.03125,0,0,no
0,0,0.1875,0.333333,0,no
0,0,0.03125,0,0,no
0,0,0.125,0.333333,0,no
0,0,0,0,0,no
0,0,0.0625,0,0,no
0.000465,0.000326,0,0,0.000465,no
0,0,0,0,0,no
0,0,0,0,0,no
0,0,0,0,0,no
0,0,0.03125,0.333333,0,no
0,0,0,0,0,no
0,0,0,0,0,no
0,0,0,0,0,no
0,0,0,0,0,no
0.00062,0.000218,0,0.333333,0.00062,no
0.002866,0.001959,0.375,0.666667,0.002324,no
0.002634,0.001632,0,0,0.002634,no
0.002634,0.001632,0,0,0.002634,no
0.002634,0.001632,0.03125,0,0.002634,no
0,0,0.0625,0,0,no
0,0,0.03125,0,0,no
0,0,0.0625,0,0,no
0,0,0.0625,0,0,no
0,0,0.09375,0,0,no
0,0,0.0625,0,0,no
0,0,0.0625,0,0,no
0,0,0,0,0,no
0,0,0.03125,0,0,no
0,0,0,0,0,no
0,0,0,0,0,no
0,0,0,0,0,no
0,0,0,0,0,no
0,0,0.03125,0,0,no
0.00062,0.000326,0,0.333333,0.000465,no
0,0,0,0,0,no
0,0,0,0,0,no
0,0,0.25,0.333333,0,no
0,0,0,0,0,no
0,0,0.0625,0.333333,0,no
0,0,0.0625,0,0,no
0,0,0,0,0,no
0,0,0.0625,0,0,no
0,0,0.0625,0.333333,0,no
0,0,0.03125,0,0,no
0,0,0.09375,0.333333,0,no
0.000155,0.000109,0.09375,0.333333,0.000155,yes
0,0,0,0,0,no
0,0,0,0,0,no
0,0,0,0,0,no
0,0,0.03125,0,0,no
0,0,0,0,0,no
0,0,0,0,0,no
0,0,0.09375,0.333333,0,no
0,0,0.0625,0.333333,0,no
0,0,0,0,0,no
0,0,0,0,0,no
0,0,0,0,0,no
0,0,0,0,0,no
0.003253,0.002285,0.28125,0.333333,0.003253,no
0,0,0,0,0,no
0,0,0.03125,0,0,no
0,0,0.09375,0.333333,0,no
0,0,0.03125,0,0,no
0,0,0,0,0,no
0,0,0,0,0,no
0,0,0,0,0,no
0,0,0,0,0,no
0,0,0,0,0,no
0,0,0.125,0.333333,0,no
0,0,0,0,0,no
0,0,0,0,0,no
0,0,0.0625,0.333333,0,no
0,0,0.0625,0.333333,0,no
0,0,0.03125,0,0,no
0,0,0,0,0,no
0,0,0.09375,0.333333,0,no
0,0,0.0625,0.333333,0,no
0,0,0,0,0,no
0,0,0.125,0.333333,0,no
0,0,0,0,0,no
0,0,0,0,0,no
0,0,0.0625,0,0,no
0,0,0,0,0,no
0,0,0,0,0,no
0,0,0,0,0,no
0,0,0.09375,0,0,no
0.00093,0.000653,0.0625,0,0.00093,no
0,0,0.03125,0,0,no
0,0,0,0,0,no
0,0,0.1875,0.333333,0,no
0.000155,0.000109,0,0,0.000155,no
0,0,0,0,0,no
0,0,0,0,0,no
0,0,0,0,0,no
0,0,0,0,0,no
0,0,0,0,0,no
0,0,0.03125,0,0,no
0,0,0.0625,0,0,no
0,0,0.125,0.333333,0,no
0,0,0.09375,0,0,no
0.000155,0.000109,0,0,0.000155,no
0,0,0,0,0,no
0,0,0.15625,0.333333,0,no
0,0,0.03125,0,0,no
0,0,0.03125,0,0,no
0,0,0.0625,0,0,no
0,0,0,0,0,no
0.002324,0.001632,0.03125,0,0.002324,no
0.002324,0.001632,0,0,0.002324,no
0,0,0,0,0,no
0.012858,0.000218,0.0625,0,0.012548,no
0.011464,0.002503,0.0625,0.333333,0.018435,no
0.000155,0.000109,0.03125,0.333333,0.000155,no
0.000155,0.000109,0,0,0.000155,no
0,0,0,0,0,no
0,0,0,0,0,no
0,0,0,0,0,no
0,0,0,0,0,no
0.004028,0.005332,0.0625,0.333333,0.006197,no
0.006197,0.004353,0,0,0.006197,no
0.004028,0.005332,0.03125,0,0.006197,no
0.006197,0.004353,0,0,0.006197,no
0,0,0,0,0,no
0,0,0,0,0,no
0,0,0.03125,0,0,no
0,0,0,0,0,no
0.000155,0.000109,0.09375,0,0.000155,no
0,0,0.03125,0,0,no
0,0,0.09375,0.333333,0,no
0,0,0,0,0,no
0,0,0,0,0,no
0,0,0.15625,0.333333,0,no
0,0,0.03125,0,0,no
0,0,0.125,0.333333,0,no
0,0,0.03125,0,0,no
0,0,0.0625,0,0,no
0,0,0,0,0,no
0.008985,0.011643,0,0.333333,0.017196,no
0.017196,0.011317,0.0625,0,0.017196,no
0.017196,0.011317,0.0625,0,0.017196,no
0.017196,0.011317,0.03125,0,0.017196,no
0.017196,0.011317,0.03125,0,0.017196,no
0.017196,0.011317,0.03125,0,0.017196,no
0.017196,0.011317,0.03125,0,0.017196,no
0.005422,0.003808,0,0,0.005422,no
0.003021,0.004026,0,0.333333,0.005422,no
0.005422,0.003808,0.03125,0,0.005422,no
0.005422,0.003808,0,0,0.005422,no
0.005422,0.003808,0.03125,0,0.005422,no
0.007591,0.004026,0.03125,0,0.005422,no
0.013323,0.000109,0.03125,0,0.013323,no
0.021069,0.000762,0.03125,0,0.014253,no
0.00785,0.004788,0.0625,0.333333,0.009915,no
0.004699,0.004244,0,0,0.008211,no
0,0,0,0,0,no
0,0,0,0,0,no
0.00031,0.000218,0,0,0.00031,no
0,0,0.03125,0,0,no
0,0,0,0,0,no
0,0,0,0,0,no
0,0,0,0,0,no
0,0,0,0,0,no
0.004183,0.001523,0,0.333333,0.001239,no
0.001239,0.000435,0,0,0.001239,no
0.001239,0.000435,0,0,0.001239,no
0.001084,0.000435,0,0,0.001084,no
0,0,0,0,0,no
0.001394,0.000979,0,0,0.001394,no
0,0,0,0,0,no
0.001394,0.000979,0,0,0.001394,no
0,0,0,0,0,no
0,0,0,0,0,no
0.00062,0.000218,0,0,0.00031,no
0.00031,0.000109,0.03125,0,0.00031,no
0.00093,0.000326,0,0,0.00093,no
0.00031,0.000109,0.03125,0,0.00031,no
0,0,0,0,0,no
0,0,0,0,0,no
0,0,0,0,0,no
0,0,0,0,0,no
0.00093,0.000326,0.15625,0.666667,0.00031,no
0,0,0.0625,0,0,no
0,0,0,0,0,no
0,0,0,0,0,no
0.00031,0.000109,0,0,0.00031,no
0.00062,0.000218,0,0,0.00062,no
0,0,0,0,0,no
0,0,0,0,0,no
0,0,0,0,0,no
0.000775,0.000544,0.0625,0,0.00062,no
0,0,0,0,0,no
0.00031,0.000109,0.03125,0,0.00031,no
0.00062,0.000218,0,0,0.00062,no
0,0,0,0,0,no
0,0,0,0,0,no
0,0,0,0,0,no
0,0,0.03125,0,0,no
0,0,0.03125,0,0,no
0,0,0.03125,0,0,no
0,0,0,0,0,no
0,0,0,0,0,no
0,0,0,0,0,no
0,0,0,0,0,no
0,0,0,0,0,no
0,0,0,0,0,no
0,0,0,0,0,no
0,0,0.0625,0,0,no
0,0,0,0,0,no
0,0,0,0,0,no
0,0,0.125,0.333333,0,no
0,0,0.03125,0,0,no
0,0,0,0,0,no
0,0,0.0625,0,0,no
0,0,0,0,0,no
0,0,0,0,0,no
0,0,0,0,0,no
0,0,0,0,0,no
0,0,0,0,0,no
0,0,0,0,0,no
0,0,0,0,0,no
0,0,0.03125,0,0,no
0.000775,0.000544,0,0,0.000775,no
0,0,0,0,0,no
0,0,0,0,0,no
0,0,0,0,0,no
0,0,0,0,0,no
0,0,0,0,0,no
0,0,0,0,0,no
0,0,0,0,0,no
0,0,0,0,0,no
0,0,0,0,0,no
0,0,0,0,0,no
0.00093,0.000326,0.03125,0,0.00062,no
0,0,0.09375,0,0,no
0,0,0,0,0,no
0,0,0,0,0,no
0,0,0,0,0,no
0,0,0,0,0,no
0.001394,0.000762,0,0,0.001394,no
0.001394,0.000762,0,0,0.001394,no
0.000775,0.002176,0.5625,0.666667,0.001859,no
0,0,0,0,0,no
0,0,0,0,0,no
0,0,0,0,0,no
0.00093,0.000653,0,0,0.00093,no
0,0,0,0,0,no
0,0,0,0,0,no
0,0,0,0,0,no
0.004648,0.003264,0,0,0.004648,no
0.004648,0.003264,0,0,0.004648,no
0.004648,0.003264,0,0,0.004648,no
0.002634,0.0037,0,0,0.004648,no
0.004648,0.003264,0,0,0.004648,no
0.004648,0.003264,0,0,0.004648,no
0,0,0,0,0,no
0.001859,0.001306,0,0,0.001859,no
0.001859,0.001306,0,0,0.001859,no
0,0,0,0,0,no
0.001549,0.001088,0,0,0.001549,no
0.001549,0.001088,0,0,0.001549,no
0,0,0,0,0,no
0,0,0,0,0,no
0.000465,0.000326,0,0,0.000465,no
0.00031,0.000109,0,0,0.00031,no
0.000155,0.000109,0,0,0.000155,no
0.002634,0.001088,0,0,0.002634,no
0.002634,0.001088,0,0,0.002634,no
0,0,0.0625,0,0,no
0.003098,0.002176,0,0,0.003098,no
0.003098,0.002176,0,0,0.003098,no
0,0,0,0,0,no
0.000775,0.000544,0.125,0,0.000775,no
0,0,0,0,0,no
0.000775,0.001088,0,0,0.001394,no
0.001317,0.001632,0,0,0.001394,no
0,0,0,0,0,no
0,0,0,0,0,no
0.001704,0.000762,0.03125,0,0.001704,no
0.516112,0.704897,0,0,1,no
0,0,0,0,0,no
0.000775,0.000544,0.125,0,0.000775,no
0,0,0,0,0,no
0.000775,0.001088,0,0,0.001394,no
0.001317,0.001632,0,0,0.001394,no
0,0,0,0,0,no
0,0,0,0,0,no
0.001704,0.000762,0.03125,0,0.001704,no
0.502091,0.704788,0,0,1,no
0,0,0,0,0,no
0.000775,0.000544,0.125,0,0.000775,no
0,0,0,0,0,no
0.000775,0.001088,0,0,0.001394,no
0.001317,0.001632,0,0,0.001394,no
0,0,0,0,0,no
0,0,0,0,0,no
0.001704,0.000762,0.03125,0,0.001704,no
0.25306,0.71012,0,0,1,no
0,0,0,0,0,no
0.000775,0.000544,0.125,0,0.000775,no
0,0,0,0,0,no
0.000775,0.001088,0,0,0.001394,no
0.001317,0.001632,0,0,0.001394,no
0,0,0,0,0,no
0,0,0,0,0,no
0.001704,0.000762,0.03125,0,0.001704,no
0.295043,0.826224,0,0,1,no
0.355577,0.998259,0.03125,0,1,no
0.355461,0.998041,0.03125,0,1,no
0.355655,0.998368,0.03125,0,1,no
0.337607,0.947769,0.03125,0,1,no
0.337839,0.947878,0.03125,0,1,no
0.393029,0.825462,0,0,1,no
0.393029,0.825462,0,0,1,no
0.021998,0.007943,0,0,0.021998,no
0.00031,0.000109,0,0,0.00031,no
0,0,0,0,0,no
0,0,0,0,0,no
0.300968,0.844614,0,0,1,no
0.301472,0.845593,0.03125,0,1,no
0.301433,0.846355,0,0,1,no
0.301433,0.846355,0,0,1,no
0.393029,0.825462,0,0,1,no
0.393029,0.825462,0,0,1,no
0.021998,0.007943,0,0,0.021998,no
0.00031,0.000109,0,0,0.00031,no
0,0,0,0,0,no
0,0,0,0,0,no
0.300968,0.844614,0,0,1,no
0.301472,0.845593,0.03125,0,1,no
0.393029,0.825462,0.03125,0,1,no
0.301433,0.846355,0,0,1,no
0.301433,0.846355,0,0,1,no
0,0,0,0,0,no
0,0,0.03125,0,0,no
0.008521,0.003047,0.03125,0,0.008211,no
0.008211,0.002938,0.0625,0,0.008211,no
0.008211,0.002938,0,0,0.008211,no
0.00426,0.003047,0,0,0.008211,no
0,0,0,0,0,no
0,0,0,0,0,no
0,0,0,0,0,no
0,0,0,0,0,no
0,0,0,0,0,no
0,0,0.03125,0,0,no
0,0,0.03125,0,0,no
0,0,0,0,0,no
0,0,0,0,0,no
0,0,0,0,0,no
0,0,0,0,0,no
0.401704,0.810229,0,0,1,no
0.001239,0.000871,0,0,0.001239,no
0.001239,0.000871,0,0,0.001239,no
0,0,0,0,0,no
0,0,0,0,0,no
0.00031,0.000109,0,0,0.00031,no
0,0,0,0,0,no
0.00031,0.000109,0.03125,0,0.00031,no
0,0,0,0,0,no
0.00031,0.000109,0,0,0.00031,no
0.00031,0.000109,0,0,0.00031,no
0,0,0,0,0,no
0.00031,0.000109,0,0,0.00031,no
0.00031,0.000109,0.03125,0,0.00031,no
0.00031,0.000109,0.03125,0,0.00031,no
0.00062,0.000218,0.03125,0,0.00031,no
0,0,0.03125,0,0,no
0.301162,0.844723,0.09375,0,1,no
0,0,0.03125,0,0,no
0.00031,0.000109,0.15625,0.333333,0.00031,no
0.300968,0.844614,0,0,1,no
0.301472,0.845593,0.03125,0,1,no
0.301782,0.847116,0.03125,0,1,no
0.301433,0.846355,0,0,1,no
0.301433,0.846355,0,0,1,no
0.301433,0.846355,0,0,1,no
0.301433,0.846355,0,0,1,no
0.301433,0.846355,0.03125,0,1,no
0.40062,0.843634,0,0,1,no
0.355577,0.998259,0.03125,0,1,no
0.337607,0.947769,0.03125,0,1,no
0.355655,0.998368,0.03125,0,1,no
0.355461,0.998041,0.03125,0,1,no
0.337839,0.947878,0.03125,0,1,no
0,0,0,0,0,no
0,0,0.03125,0,0,no
0.008521,0.003047,0.03125,0,0.008211,no
0.008211,0.002938,0.0625,0,0.008211,no
0.008211,0.002938,0,0,0.008211,no
0.00426,0.003047,0,0,0.008211,no
0,0,0,0,0,no
0,0,0,0,0,no
0,0,0,0,0,no
0,0,0,0,0,no
0,0,0,0,0,no
0,0,0.03125,0,0,no
0,0,0.03125,0,0,no
0,0,0,0,0,no
0,0,0,0,0,no
0,0,0,0,0,no
0,0,0,0,0,no
0.40062,0.843634,0,0,1,no
0.001239,0.000871,0,0,0.001239,no
0.001239,0.000871,0,0,0.001239,no
0,0,0,0,0,no
0,0,0,0,0,no
0.00031,0.000109,0,0,0.00031,no
0,0,0,0,0,no
0.00031,0.000109,0.03125,0,0.00031,no
0,0,0,0,0,no
0.00031,0.000109,0,0,0.00031,no
0.00031,0.000109,0,0,0.00031,no
0,0,0,0,0,no
0.00031,0.000109,0,0,0.00031,no
0.00031,0.000109,0.03125,0,0.00031,no
0.00031,0.000109,0.03125,0,0.00031,no
0.00062,0.000218,0.03125,0,0.00031,no
0,0,0.03125,0,0,no
0.356545,1,0.21875,0.333333,1,no
0,0,0.03125,0,0,no
0.00031,0.000109,0.15625,0.333333,0.00031,no
0.355461,0.998041,0.03125,0,1,no
0.355577,0.998259,0.03125,0,1,no
0.355655,0.998368,0.03125,0,1,no
0.355461,0.998041,0.03125,0,1,no
0.355809,0.998585,0.0625,0,1,no
0.355809,0.998585,0.03125,0,1,no
0.355809,0.998585,0.0625,0,1,no
0.355616,0.998259,0.0625,0,1,no
0.356081,0.999782,0.03125,0,1,no
0.356081,0.999782,0.03125,0,1,no
0.355693,0.998368,0.03125,0,1,no
0.449729,0.947008,0.03125,0,1,no
0.337761,0.947878,0.03125,0,1,no
0.337723,0.947769,0,0,1,no
0.337839,0.947878,0.03125,0,1,no
0.337607,0.947769,0.03125,0,1,no
0.337607,0.947769,0,0,1,no
0.337452,0.947443,0,0,1,no
0.337374,0.947225,0,0,1,no
0.337761,0.948096,0.03125,0,1,no
0.337723,0.947987,0,0,1,no
0.337839,0.948205,0.03125,0,1,no
0.425871,0.896736,0.03125,0,1,no
0.425871,0.896736,0,0,1,no
0.425871,0.896736,0.03125,0,1,no
0.449729,0.947008,0,0,1,no
0.449729,0.947008,0,0,1,no
0.021998,0.007943,0,0,0.021998,no
0.00031,0.000109,0,0,0.00031,no
0,0,0,0,0,no
0,0,0,0,0,no
0.337723,0.947987,0,0,1,no
0.337839,0.948205,0.03125,0,1,no
0.425871,0.896736,0.03125,0,1,no
0.425871,0.896736,0,0,1,no
0.425871,0.896736,0.03125,0,1,no
0.449729,0.947008,0.03125,0,1,no
0,0,0,0,0,no
0,0,0.03125,0,0,no
0.008521,0.003047,0.03125,0,0.008211,no
0.008211,0.002938,0.0625,0,0.008211,no
0.008211,0.002938,0,0,0.008211,no
0.00426,0.003047,0,0,0.008211,no
0,0,0,0,0,no
0,0,0,0,0,no
0,0,0,0,0,no
0,0,0,0,0,no
0,0,0,0,0,no
0,0,0.03125,0,0,no
0,0,0.03125,0,0,no
0,0,0,0,0,no
0,0,0,0,0,no
0,0,0,0,0,no
0,0,0,0,0,no
0.449729,0.947008,0,0,1,no
0.001239,0.000871,0,0,0.001239,no
0.001239,0.000871,0,0,0.001239,no
0,0,0,0,0,no
0,0,0,0,0,no
0.00031,0.000109,0,0,0.00031,no
0,0,0,0,0,no
0.00031,0.000109,0.03125,0,0.00031,no
0,0,0,0,0,no
0.00031,0.000109,0,0,0.00031,no
0.00031,0.000109,0,0,0.00031,no
0,0,0,0,0,no
0.00031,0.000109,0,0,0.00031,no
0.00031,0.000109,0.03125,0,0.00031,no
0.00031,0.000109,0.03125,0,0.00031,no
0.00062,0.000218,0.03125,0,0.00031,no
0,0,0.03125,0,0,no
0.337761,0.948313,0.09375,0,1,no
0,0,0.03125,0,0,no
0.00031,0.000109,0.15625,0.333333,0.00031,no
0.337723,0.947987,0,0,1,no
0.337839,0.948205,0.03125,0,1,no
0.33873,0.950598,0.0625,0,1,no
0.338187,0.949402,0.03125,0,1,no
0.338497,0.950054,0.0625,0,1,no
0.337607,0.947769,0.03125,0,1,no
0.426285,0.897497,0,0,1,no
0.425871,0.896736,0.03125,0,1,no
0.319597,0.89728,0.03125,0,1,no
0.425871,0.896736,0,0,1,no
0.425871,0.896736,0.03125,0,1,no
0.425871,0.896736,0.03125,0,1,no
0.425871,0.896736,0,0,1,no
0.425871,0.896736,0,0,1,no
0.634469,0.890642,0,0,1,no
0.634469,0.890642,0,0,1,no
0.424064,0.891839,0,0,1,no
0.423754,0.891186,0,0,1,no
0,0,0,0,0,no
0,0,0.03125,0,0,no
0,0,0.03125,0,0,no
0.320798,0.900544,0,0,1,no
0.32103,0.900979,0.03125,0,1,no
0.426697,0.89815,0.03125,0,1,no
0.31952,0.897062,0,0,1,no
0.425975,0.896953,0,0,1,no
0.021998,0.007943,0,0,0.021998,no
0.00031,0.000109,0,0,0.00031,no
0,0,0,0,0,no
0,0,0,0,0,no
0.634469,0.890642,0,0,1,no
0.634469,0.890642,0,0,1,no
0.424064,0.891839,0,0,1,no
0.423754,0.891186,0,0,1,no
0,0,0,0,0,no
0,0,0.03125,0,0,no
0,0,0.03125,0,0,no
0.320798,0.900544,0,0,1,no
0.32103,0.900979,0.03125,0,1,no
0.426697,0.89815,0.03125,0,1,no
0,0,0,0,0,no
0,0,0.03125,0,0,no
0.008521,0.003047,0.03125,0,0.008211,no
0.008211,0.002938,0.0625,0,0.008211,no
0.008211,0.002938,0,0,0.008211,no
0.00426,0.003047,0,0,0.008211,no
0,0,0,0,0,no
0,0,0,0,0,no
0,0,0,0,0,no
0,0,0,0,0,no
0,0,0,0,0,no
0,0,0.03125,0,0,no
0,0,0.03125,0,0,no
0,0,0,0,0,no
0,0,0,0,0,no
0,0,0,0,0,no
0,0,0,0,0,no
0.424167,0.892709,0,0,1,no
0.001239,0.000871,0,0,0.001239,no
0.001239,0.000871,0,0,0.001239,no
0,0,0,0,0,no
0,0,0,0,0,no
0.00031,0.000109,0,0,0.00031,no
0,0,0,0,0,no
0.00031,0.000109,0.03125,0,0.00031,no
0,0,0,0,0,no
0.00031,0.000109,0,0,0.00031,no
0.00031,0.000109,0,0,0.00031,no
0,0,0,0,0,no
0.00031,0.000109,0,0,0.00031,no
0.00031,0.000109,0.03125,0,0.00031,no
0.00031,0.000109,0.03125,0,0.00031,no
0.00062,0.000218,0.03125,0,0.00031,no
0,0,0.03125,0,0,no
0.31828,0.892601,0.15625,0,1,no
0,0,0.03125,0,0,no
0.00031,0.000109,0.15625,0.333333,0.00031,no
0.634469,0.890642,0,0,1,no
0.634469,0.890642,0,0,1,no
0.634469,0.890642,0.03125,0,1,no
0.423289,0.891295,0,0,1,no
0.424064,0.891839,0,0,1,no
0.423754,0.891186,0,0,1,no
0.425201,0.894015,0.03125,0,1,no
0.424426,0.893471,0,0,1,no
0,0,0,0,0,no
0,0,0.03125,0,0,no
0,0,0.0625,0,0,no
0,0,0.03125,0,0,no
0,0,0.0625,0,0,no
0,0,0.03125,0,0,no
0,0,0,0,0,no
0,0,0.03125,0,0,no
0,0,0.03125,0,0,no
0.320798,0.900544,0,0,1,no
0.32103,0.900979,0.03125,0,1,no
0.324051,0.908814,0.0625,0,1,no
0.426697,0.89815,0.03125,0,1,no
0.426697,0.89815,0.0625,0,1,no
0.426697,0.89815,0.03125,0,1,no
0.426697,0.89815,0,0,1,no
0.426697,0.89815,0.03125,0,1,no
0.426697,0.89815,0.03125,0,1,no
0.342009,0.717737,0,0,1,no
0.342009,0.717737,0,0,1,no
0.342009,0.717737,0,0,1,no
0.342009,0.717737,0,0,1,no
0.423083,0.890751,0,0,1,no
0.634469,0.890642,0,0,1,no
0.021998,0.007943,0,0,0.021998,no
0.00031,0.000109,0,0,0.00031,no
0,0,0,0,0,no
0,0,0,0,0,no
0.342009,0.717737,0,0,1,no
0.342009,0.717737,0,0,1,no
0.342009,0.717737,0,0,1,no
0.342009,0.717737,0,0,1,no
0,0,0,0,0,no
0,0,0.03125,0,0,no
0.008521,0.003047,0.03125,0,0.008211,no
0.008211,0.002938,0.0625,0,0.008211,no
0.008211,0.002938,0,0,0.008211,no
0.00426,0.003047,0,0,0.008211,no
0,0,0,0,0,no
0,0,0,0,0,no
0,0,0,0,0,no
0,0,0,0,0,no
0,0,0,0,0,no
0,0,0.03125,0,0,no
0,0,0.03125,0,0,no
0,0,0,0,0,no
0,0,0,0,0,no
0,0,0,0,0,no
0,0,0,0,0,no
0.634469,0.890642,0,0,1,no
0.001239,0.000871,0,0,0.001239,no
0.001239,0.000871,0,0,0.001239,no
0,0,0,0,0,no
0,0,0,0,0,no
0.00031,0.000109,0,0,0.00031,no
0,0,0,0,0,no
0.00031,0.000109,0.03125,0,0.00031,no
0,0,0,0,0,no
0.00031,0.000109,0,0,0.00031,no
0.00031,0.000109,0,0,0.00031,no
0,0,0,0,0,no
0.00031,0.000109,0,0,0.00031,no
0.00031,0.000109,0.03125,0,0.00031,no
0.00031,0.000109,0.03125,0,0.00031,no
0.00062,0.000218,0.03125,0,0.00031,no
0,0,0.03125,0,0,no
0.334624,0.703373,0.09375,0,1,no
0,0,0.03125,0,0,no
0.00031,0.000109,0.15625,0.333333,0.00031,no
0.342009,0.717737,0,0,1,no
0.342009,0.717737,0,0,1,no
0.342164,0.717954,0.03125,0,1,no
0.341854,0.717519,0,0,1,no
0.342009,0.717737,0,0,1,no
0.342009,0.717737,0,0,1,no
0.342164,0.718063,0,0,1,no
0.342009,0.717845,0,0,1,no
0.34268,0.719369,0,0,1,no
0.34268,0.719369,0,0,1,no
0.342112,0.720022,0.03125,0,1,no
0.34206,0.719695,0.03125,0,1,no
0.341802,0.719478,0.03125,0,1,no
0.343868,0.720131,0.03125,0,1,no
0.341854,0.719587,0.03125,0,1,no
0.342421,0.71839,0,0,1,no
0.342421,0.71839,0,0,1,no
0.021998,0.007943,0,0,0.021998,no
0.00031,0.000109,0,0,0.00031,no
0,0,0,0,0,no
0,0,0,0,0,no
0.34268,0.719369,0,0,1,no
0.34268,0.719369,0,0,1,no
0.342112,0.720022,0.03125,0,1,no
0.343868,0.720131,0.03125,0,1,no
0.341802,0.719478,0.03125,0,1,no
0.34206,0.719695,0.03125,0,1,no
0.341854,0.719587,0.03125,0,1,no
0,0,0,0,0,no
0,0,0.03125,0,0,no
0.008521,0.003047,0.03125,0,0.008211,no
0.008211,0.002938,0.0625,0,0.008211,no
0.008211,0.002938,0,0,0.008211,no
0.00426,0.003047,0,0,0.008211,no
0,0,0,0,0,no
0,0,0,0,0,no
0,0,0,0,0,no
0,0,0,0,0,no
0,0,0,0,0,no
0,0,0.03125,0,0,no
0,0,0.03125,0,0,no
0,0,0,0,0,no
0,0,0,0,0,no
0,0,0,0,0,no
0,0,0,0,0,no
0.342266,0.720239,0,0,1,no
0.001239,0.000871,0,0,0.001239,no
0.001239,0.000871,0,0,0.001239,no
0,0,0,0,0,no
0,0,0,0,0,no
0.00031,0.000109,0,0,0.00031,no
0,0,0,0,0,no
0.00031,0.000109,0.03125,0,0.00031,no
0,0,0,0,0,no
0.00031,0.000109,0,0,0.00031,no
0.00031,0.000109,0,0,0.00031,no
0,0,0,0,0,no
0.00031,0.000109,0,0,0.00031,no
0.00031,0.000109,0.03125,0,0.00031,no
0.00031,0.000109,0.03125,0,0.00031,no
0.00062,0.000218,0.03125,0,0.00031,no
0,0,0.03125,0,0,no
0.343249,0.720348,0.25,0.333333,1,no
0,0,0.03125,0,0,no
0.00031,0.000109,0.15625,0.333333,0.00031,no
0.34268,0.719369,0,0,1,no
0.34268,0.719369,0,0,1,no
0.334934,0.705005,0,0,1,no
0.343196,0.721763,0,0,1,no
0.341441,0.718934,0.03125,0,1,no
0.342112,0.720022,0.03125,0,1,no
0.341802,0.719478,0.03125,0,1,no
0.34206,0.719695,0.03125,0,1,no
0.342576,0.720566,0.0625,0,1,no
0.342164,0.719804,0.03125,0,1,no
0.343041,0.722089,0.0625,0,1,no
0.342576,0.721328,0.0625,0,1,no
0.342576,0.721328,0.03125,0,1,no
0.341699,0.719478,0.03125,0,1,no
0.34206,0.719913,0.03125,0,1,no
0.511929,0.718607,0.03125,0,1,no
0.511929,0.718607,0.03125,0,1,no
0.341337,0.718716,0,0,1,no
0.341854,0.719587,0.03125,0,1,no
0.343868,0.720131,0.03125,0,1,no
0.335399,0.704353,0,0,1,no
0.335348,0.704244,0,0,1,no
0.336689,0.70457,0,0,1,no
0.337309,0.705223,0.03125,0,1,no
0.071159,0.149946,0,0,0.123005,no
0.071159,0.149946,0,0,0.123005,no
0.3449,0.72383,0,0,1,no
0.517041,0.723613,0,0,1,no
0.345055,0.724374,0,0,1,no
0.517041,0.723613,0,0,1,no
0.517041,0.723613,0,0,1,no
0.071572,0.150816,0,0,0.123005,no
0.071572,0.150816,0,0,0.123005,no
0.517041,0.723613,0,0,1,no
0.517041,0.723613,0,0,1,no
0.106352,0.149402,0,0,0.123005,no
0.106352,0.149402,0,0,0.123005,no
0.334418,0.703373,0,0,1,no
0.33514,0.704461,0.03125,0,1,no
0.520914,0.73123,0.03125,0,1,no
0.347328,0.731338,0,0,1,no
0.347328,0.731338,0.03125,0,1,no
0.347637,0.731665,0.03125,0,1,no
0.347896,0.732535,0,0,1,no
0.279551,0.784875,0.03125,0,1,no
0.279899,0.785528,0.03125,0,1,no
0.372115,0.783569,0,0,1,no
0.279396,0.784004,0.03125,0,1,no
0.359462,0.75506,0.03125,0,1,no
0.365402,0.767247,0,0,1,no
0.365402,0.767247,0.03125,0,1,no
0.274516,0.768118,0.03125,0,1,no
0.274129,0.767356,0,0,1,no
0.274167,0.767465,0.03125,0,1,no
0.274322,0.770185,0.03125,0,1,no
0.277188,0.778237,0,0,1,no
0.221844,0.778455,0.03125,0,1,no
0.222618,0.779652,0.03125,0,1,no
0.510844,0.714908,0,0,1,no
0.510844,0.714908,0,0,1,no
0.021998,0.007943,0,0,0.021998,no
0.00031,0.000109,0,0,0.00031,no
0,0,0,0,0,no
0,0,0,0,0,no
0.071159,0.149946,0,0,0.123005,no
0.071159,0.149946,0,0,0.123005,no
0.3449,0.72383,0,0,1,no
0.517041,0.723613,0,0,1,no
0.345055,0.724374,0,0,1,no
0.517041,0.723613,0,0,1,no
0.517041,0.723613,0,0,1,no
0.071572,0.150816,0,0,0.123005,no
0.071572,0.150816,0,0,0.123005,no
0.517041,0.723613,0,0,1,no
0.517041,0.723613,0,0,1,no
0.106352,0.149402,0,0,0.123005,no
0.106352,0.149402,0,0,0.123005,no
0.334418,0.703373,0,0,1,no
0.33514,0.704461,0.03125,0,1,no
0.520914,0.73123,0.03125,0,1,no
0.347328,0.731338,0,0,1,no
0.347328,0.731338,0.03125,0,1,no
0.347637,0.731665,0.03125,0,1,no
0.347896,0.732535,0,0,1,no
0.279551,0.784875,0.03125,0,1,no
0.279899,0.785528,0.03125,0,1,no
0.372115,0.783569,0,0,1,no
0.279396,0.784004,0.03125,0,1,no
0.359462,0.75506,0.03125,0,1,no
0.365402,0.767247,0,0,1,no
0.365402,0.767247,0.03125,0,1,no
0.274516,0.768118,0.03125,0,1,no
0.274129,0.767356,0,0,1,no
0.274167,0.767465,0.03125,0,1,no
0.274322,0.770185,0.03125,0,1,no
0.277188,0.778237,0,0,1,no
0.221844,0.778455,0.03125,0,1,no
0.222618,0.779652,0.03125,0,1,no
0,0,0,0,0,no
0,0,0.03125,0,0,no
0.008521,0.003047,0.03125,0,0.008211,no
0.008211,0.002938,0.0625,0,0.008211,no
0.008211,0.002938,0,0,0.008211,no
0.00426,0.003047,0,0,0.008211,no
0,0,0,0,0,no
0,0,0,0,0,no
0,0,0,0,0,no
0,0,0,0,0,no
0,0,0,0,0,no
0,0,0.03125,0,0,no
0,0,0.03125,0,0,no
0,0,0,0,0,no
0,0,0,0,0,no
0,0,0,0,0,no
0,0,0,0,0,no
0.339478,0.71469,0,0,1,no
0.001239,0.000871,0,0,0.001239,no
0.001239,0.000871,0,0,0.001239,no
0,0,0,0,0,no
0,0,0,0,0,no
0.00031,0.000109,0,0,0.00031,no
0,0,0,0,0,no
0.00031,0.000109,0.03125,0,0.00031,no
0,0,0,0,0,no
0.00031,0.000109,0,0,0.00031,no
0.00031,0.000109,0,0,0.00031,no
0,0,0,0,0,no
0.00031,0.000109,0,0,0.00031,no
0.00031,0.000109,0.03125,0,0.00031,no
0.00031,0.000109,0.03125,0,0.00031,no
0.00062,0.000218,0.03125,0,0.00031,no
0,0,0.03125,0,0,no
0.255461,0.716866,0.46875,0.666667,1,no
0,0,0.03125,0,0,no
0.00031,0.000109,0.15625,0.333333,0.00031,no
0.071159,0.149946,0,0,0.123005,no
0.071159,0.149946,0,0,0.123005,no
0.071159,0.149946,0.03125,0,0.123005,no
0.106352,0.149402,0,0,0.123005,no
0.3449,0.72383,0,0,1,no
0.517041,0.723613,0,0,1,no
0.3449,0.72383,0.03125,0,1,no
0.3449,0.72383,0,0,1,no
0.345055,0.724374,0.03125,0,1,no
0.345055,0.724374,0,0,1,no
0.517041,0.723613,0,0,1,no
0.517041,0.723613,0,0,1,no
0.517041,0.723613,0.03125,0,1,no
0.517041,0.723613,0.03125,0,1,no
0.517041,0.723613,0,0,1,no
0.517041,0.723613,0,0,1,no
0.071572,0.150816,0,0,0.123005,no
0.071572,0.150816,0,0,0.123005,no
0.071572,0.150816,0,0,0.123005,no
0.071624,0.150925,0,0,0.123005,no
0.517041,0.723613,0,0,1,no
0.517041,0.723613,0,0,1,no
0.345004,0.724266,0,0,1,no
0.345778,0.72481,0,0,1,no
0.106352,0.149402,0,0,0.123005,no
0.106352,0.149402,0,0,0.123005,no
0.106352,0.149402,0.03125,0,0.123005,no
0.089698,0.063003,0,0,0.089698,no
0.334418,0.703373,0,0,1,no
0.33514,0.704461,0.03125,0,1,no
0.348051,0.732427,0.0625,0,1,no
0.347534,0.731556,0.03125,0,1,no
0.348361,0.732753,0.0625,0,1,no
0.347844,0.7321,0.03125,0,1,no
0.520914,0.73123,0,0,1,no
0.520914,0.73123,0.03125,0,1,no
0.347483,0.731665,0.03125,0,1,no
0.347328,0.731338,0,0,1,no
0.347328,0.731338,0.03125,0,1,no
0.347431,0.731447,0.0625,0,1,no
0.347483,0.731556,0.03125,0,1,no
0.347792,0.731882,0.0625,0,1,no
0.347534,0.731556,0.03125,0,1,no
0.347431,0.731447,0,0,1,no
0.347637,0.731665,0.03125,0,1,no
0.347534,0.731556,0.03125,0,1,no
0.347896,0.732535,0,0,1,no
0.279551,0.784875,0.03125,0,1,no
0.279822,0.78531,0.0625,0,1,no
0.372115,0.783569,0.03125,0,1,no
0.279551,0.78444,0.0625,0,1,no
0.279938,0.78531,0.03125,0,1,no
0.279512,0.784548,0,0,1,no
0.279899,0.785528,0.03125,0,1,no
0.279822,0.78531,0.03125,0,1,no
0.372115,0.783569,0,0,1,no
0.279396,0.784004,0.03125,0,1,no
0.280015,0.78444,0.0625,0,1,no
0.270798,0.756692,0.03125,0,1,no
0.275639,0.756583,0.0625,0,1,no
0.367312,0.755604,0.03125,0,1,no
0.360237,0.755277,0,0,1,no
0.359462,0.75506,0.03125,0,1,no
0.366899,0.768553,0.03125,0,1,no
0.365402,0.767247,0,0,1,no
0.365402,0.767247,0.03125,0,1,no
0.274284,0.7679,0.0625,0,1,no
0.274864,0.768444,0.03125,0,1,no
0.274942,0.769532,0.0625,0,1,no
0.274942,0.769532,0.03125,0,1,no
0.274438,0.768009,0,0,1,no
0.274516,0.768118,0.03125,0,1,no
0.274129,0.767356,0.03125,0,1,no
0.274129,0.767356,0,0,1,no
0.274167,0.767465,0.03125,0,1,no
0.275019,0.769206,0.0625,0,1,no
0.27471,0.770076,0.03125,0,1,no
0.364937,0.768444,0.0625,0,1,no
0.274322,0.770185,0.03125,0,1,no
0.274322,0.770185,0,0,1,no
0.274322,0.770185,0.03125,0,1,no
0.221782,0.778346,0.03125,0,1,no
0.277188,0.778237,0,0,1,no
0.221844,0.778455,0.03125,0,1,no
0.221782,0.778346,0.0625,0,1,no
0.221905,0.778564,0.03125,0,1,no
0.222153,0.779217,0.0625,0,1,no
0.222091,0.779217,0.03125,0,1,no
0.222246,0.779652,0,0,1,no
0.222618,0.779652,0.03125,0,1,no
0.219489,0.766703,0.03125,0,1,no
0.336534,0.703591,0,0,1,no
0.334675,0.703047,0.03125,0,1,no
0.255926,0.715996,0.03125,0,1,no
0.270139,0.755822,0,0,1,no
0.270759,0.75778,0,0,1,no
0.021998,0.007943,0,0,0.021998,no
0.00031,0.000109,0,0,0.00031,no
0,0,0,0,0,no
0,0,0,0,0,no
0.336534,0.703591,0,0,1,no
0.334675,0.703047,0.03125,0,1,no
0.255926,0.715996,0.03125,0,1,no
0,0,0,0,0,no
0,0,0.03125,0,0,no
0.008521,0.003047,0.03125,0,0.008211,no
0.008211,0.002938,0.0625,0,0.008211,no
0.008211,0.002938,0,0,0.008211,no
0.00426,0.003047,0,0,0.008211,no
0,0,0,0,0,no
0,0,0,0,0,no
0,0,0,0,0,no
0,0,0,0,0,no
0,0,0,0,0,no
0,0,0.03125,0,0,no
0,0,0.03125,0,0,no
0,0,0,0,0,no
0,0,0,0,0,no
0,0,0,0,0,no
0,0,0,0,0,no
0.512084,0.716649,0,0,1,no
0.001239,0.000871,0,0,0.001239,no
0.001239,0.000871,0,0,0.001239,no
0,0,0,0,0,no
0,0,0,0,0,no
0.00031,0.000109,0,0,0.00031,no
0,0,0,0,0,no
0.00031,0.000109,0.03125,0,0.00031,no
0,0,0,0,0,no
0.00031,0.000109,0,0,0.00031,no
0.00031,0.000109,0,0,0.00031,no
0,0,0,0,0,no
0.00031,0.000109,0,0,0.00031,no
0.00031,0.000109,0.03125,0,0.00031,no
0.00031,0.000109,0.03125,0,0.00031,no
0.00062,0.000218,0.03125,0,0.00031,no
0,0,0.03125,0,0,no
0.257281,0.722089,0.0625,0,1,no
0,0,0.03125,0,0,no
0.00031,0.000109,0.15625,0.333333,0.00031,no
0.336534,0.703591,0,0,1,no
0.334675,0.703047,0.03125,0,1,no
0.253253,0.705005,0.0625,0,1,no
0.345624,0.704897,0.03125,0,1,no
0.169326,0.70642,0.0625,0,1,no
0.201332,0.704353,0.03125,0,1,no
0.256584,0.717193,0,0,1,no
0.255926,0.715996,0.03125,0,1,no
0.255616,0.715343,0.03125,0,1,no
0.135709,0.095321,0,0,0.135709,no
0.068706,0.0963,0.03125,0,0.135709,no
0.068397,0.096083,0.03125,0,0.135709,no
0,0,0,0,0,no
0,0,0,0,0,no
0.135709,0.095321,0,0,0.135709,no
0.135709,0.095321,0.03125,0,0.135709,no
0.135709,0.095321,0,0,0.135709,no
0.135709,0.095321,0,0,0.135709,no
0.255887,0.715996,0,0,1,no
0.255887,0.715996,0,0,1,no
0.021998,0.007943,0,0,0.021998,no
0.00031,0.000109,0,0,0.00031,no
0,0,0,0,0,no
0,0,0,0,0,no
0.135709,0.095321,0,0,0.135709,no
0.068706,0.0963,0.03125,0,0.135709,no
0.068397,0.096083,0.03125,0,0.135709,no
0,0,0,0,0,no
0,0,0,0,0,no
0.135709,0.095321,0,0,0.135709,no
0.135709,0.095321,0.03125,0,0.135709,no
0.001394,0.001741,0.03125,0,0.001704,no
0.135709,0.095321,0,0,0.135709,no
0.135709,0.095321,0,0,0.135709,no
0,0,0,0,0,no
0,0,0.03125,0,0,no
0.008521,0.003047,0.03125,0,0.008211,no
0.008211,0.002938,0.0625,0,0.008211,no
0.008211,0.002938,0,0,0.008211,no
0.00426,0.003047,0,0,0.008211,no
0,0,0,0,0,no
0,0,0,0,0,no
0,0,0,0,0,no
0,0,0,0,0,no
0,0,0,0,0,no
0,0,0.03125,0,0,no
0,0,0.03125,0,0,no
0,0,0,0,0,no
0,0,0,0,0,no
0,0,0,0,0,no
0,0,0,0,0,no
0.338652,0.71197,0,0,1,no
0.001239,0.000871,0,0,0.001239,no
0.001239,0.000871,0,0,0.001239,no
0,0,0,0,0,no
0,0,0,0,0,no
0.00031,0.000109,0,0,0.00031,no
0,0,0,0,0,no
0.00031,0.000109,0.03125,0,0.00031,no
0,0,0,0,0,no
0.00031,0.000109,0,0,0.00031,no
0.00031,0.000109,0,0,0.00031,no
0,0,0,0,0,no
0.00031,0.000109,0,0,0.00031,no
0.00031,0.000109,0.03125,0,0.00031,no
0.00031,0.000109,0.03125,0,0.00031,no
0.00062,0.000218,0.03125,0,0.00031,no
0,0,0.03125,0,0,no
0.353473,0.723177,0.15625,0,1,no
0,0,0.03125,0,0,no
0.00031,0.000109,0.15625,0.333333,0.00031,no
0.135709,0.095321,0,0,0.135709,no
0.068706,0.0963,0.03125,0,0.135709,no
0.069558,0.097171,0.0625,0,0.135709,no
0.069094,0.096736,0.03125,0,0.135709,no
0.068474,0.095756,0.0625,0,0.135709,no
0.068319,0.095647,0.03125,0,0.135709,no
0.068009,0.09543,0,0,0.135709,no
0.068397,0.096083,0.03125,0,0.135709,no
0.068397,0.096083,0.03125,0,0.135709,no
0,0,0,0,0,no
0,0,0,0,0,no
0,0,0,0,0,no
0,0,0,0,0,no
0.135709,0.095321,0,0,0.135709,no
0.135709,0.095321,0.03125,0,0.135709,no
0.135709,0.095321,0.03125,0,0.135709,no
0.135709,0.095321,0,0,0.135709,no
0.135709,0.095321,0,0,0.135709,no
0.135709,0.095321,0,0,0.135709,no
0.135709,0.095321,0,0,0.135709,no
0.135709,0.095321,0,0,0.135709,no
0.135709,0.095321,0,0,0.135709,no
0.089698,0.063003,0,0,0.089698,no
0.089698,0.063003,0,0,0.089698,no
0.068784,0.096627,0,0,0.135709,no
0.068784,0.096627,0,0,0.135709,no
0.00093,0.001197,0,0,0.001549,no
0.00093,0.001197,0,0,0.001549,no
0,0,0,0,0,no
0,0,0,0,0,no
0,0,0,0,0,no
0.000542,0.000653,0.03125,0,0.000775,no
0,0,0.03125,0,0,no
0.068242,0.095647,0,0,0.135709,no
0.135709,0.095321,0,0,0.135709,no
0.502479,0.705441,0,0,1,no
0.33514,0.705767,0,0,1,no
0.021998,0.007943,0,0,0.021998,no
0.00031,0.000109,0,0,0.00031,no
0,0,0,0,0,no
0,0,0,0,0,no
0,0,0,0,0,no
0.000775,0.000544,0.125,0,0.000775,no
0,0,0,0,0,no
0.000775,0.001088,0,0,0.001394,no
0.001317,0.001632,0,0,0.001394,no
0,0,0,0,0,no
0,0,0,0,0,no
0.001704,0.000762,0.03125,0,0.001704,no
0.005112,0.003156,0,0,0.005112,no
0.089698,0.063003,0,0,0.089698,no
0.089698,0.063003,0,0,0.089698,no
0.068784,0.096627,0,0,0.135709,no
0.068784,0.096627,0,0,0.135709,no
0.00093,0.001197,0,0,0.001549,no
0.00093,0.001197,0,0,0.001549,no
0,0,0,0,0,no
0,0,0,0,0,no
0,0,0,0,0,no
0.000542,0.000653,0.03125,0,0.000775,no
0,0,0.03125,0,0,no
0.068242,0.095647,0,0,0.135709,no
0.135709,0.095321,0,0,0.135709,no
0,0,0,0,0,no
0,0,0.03125,0,0,no
0.008521,0.003047,0.03125,0,0.008211,no
0.008211,0.002938,0.0625,0,0.008211,no
0.008211,0.002938,0,0,0.008211,no
0.00426,0.003047,0,0,0.008211,no
0,0,0,0,0,no
0,0,0,0,0,no
0,0,0,0,0,no
0,0,0,0,0,no
0,0,0,0,0,no
0,0,0.03125,0,0,no
0,0,0.03125,0,0,no
0,0,0,0,0,no
0,0,0,0,0,no
0,0,0,0,0,no
0,0,0,0,0,no
0,0,0,0,0,no
0.001239,0.000871,0,0,0.001239,no
0.001239,0.000871,0,0,0.001239,no
0,0,0,0,0,no
0,0,0,0,0,no
0.00031,0.000109,0,0,0.00031,no
0,0,0,0,0,no
0.00031,0.000109,0.03125,0,0.00031,no
0,0,0,0,0,no
0.00031,0.000109,0,0,0.00031,no
0.00031,0.000109,0,0,0.00031,no
0,0,0,0,0,no
0.00031,0.000109,0,0,0.00031,no
0.00031,0.000109,0.03125,0,0.00031,no
0.00031,0.000109,0.03125,0,0.00031,no
0.00062,0.000218,0.03125,0,0.00031,no
0,0,0.03125,0,0,no
0.005422,0.003482,0.21875,0.333333,0.005422,no
0,0,0.03125,0,0,no
0.00031,0.000109,0.15625,0.333333,0.00031,no
0.089698,0.063003,0,0,0.089698,no
0.089698,0.063003,0,0,0.089698,no
0.044926,0.063112,0.03125,0,0.089698,no
0,0,0,0,0,no
0.068784,0.096627,0,0,0.135709,no
0.068784,0.096627,0,0,0.135709,no
0.035864,0.099891,0.03125,0,0.135709,no
0.046527,0.097824,0,0,0.135709,no
0.00093,0.001197,0,0,0.001549,no
0.00093,0.001197,0,0,0.001549,no
0.001162,0.001415,0,0,0.001549,no
0.000542,0.000435,0,0,0.000775,no
0,0,0,0,0,no
0,0,0,0,0,no
0,0,0,0,0,no
0,0,0,0,0,no
0,0,0,0,0,no
0.000542,0.000653,0.03125,0,0.000775,no
0.000697,0.000762,0.0625,0,0.000775,no
0.00031,0.000109,0.03125,0,0.00031,no
0,0,0.0625,0,0,no
0,0,0.03125,0,0,no
0,0,0,0,0,no
0,0,0.03125,0,0,no
0,0,0.03125,0,0,no
0.068242,0.095647,0,0,0.135709,no
0.135709,0.095321,0,0,0.135709,no
0.135709,0.095321,0,0,0.135709,no
0.068784,0.096627,0,0,0.135709,no
0.068242,0.095647,0,0,0.135709,no
0.135709,0.095321,0,0,0.135709,no
0.068784,0.096627,0,0,0.135709,no
0.068784,0.096627,0,0,0.135709,no
0,0,0,0,0,no
0,0,0,0,0,no
0.135709,0.095321,0,0,0.135709,no
0.068706,0.0963,0.03125,0,0.135709,no
0.068397,0.096083,0.03125,0,0.135709,no
0.135709,0.095321,0,0,0.135709,no
0.135709,0.095321,0.03125,0,0.135709,no
0.135709,0.095321,0,0,0.135709,no
0.135709,0.095321,0,0,0.135709,no
0.135709,0.095321,0,0,0.135709,no
0.068319,0.095974,0,0,0.135709,no
0.00031,0.000109,0,0,0.00031,no
0,0,0,0,0,no
0.021998,0.007943,0,0,0.021998,no
0.00031,0.000109,0,0,0.00031,no
0,0,0,0,0,no
0,0,0,0,0,no
0.068242,0.095647,0,0,0.135709,no
0.135709,0.095321,0,0,0.135709,no
0.068784,0.096627,0,0,0.135709,no
0.068784,0.096627,0,0,0.135709,no
0,0,0,0,0,no
0,0,0,0,0,no
0.135709,0.095321,0,0,0.135709,no
0.068706,0.0963,0.03125,0,0.135709,no
0.068397,0.096083,0.03125,0,0.135709,no
0.135709,0.095321,0,0,0.135709,no
0.135709,0.095321,0.03125,0,0.135709,no
0.001394,0.001741,0.03125,0,0.001704,no
0.135709,0.095321,0,0,0.135709,no
0.135709,0.095321,0,0,0.135709,no
0.135709,0.095321,0,0,0.135709,no
0.068319,0.095974,0,0,0.135709,no
0,0,0,0,0,no
0,0,0.03125,0,0,no
0.008521,0.003047,0.03125,0,0.008211,no
0.008211,0.002938,0.0625,0,0.008211,no
0.008211,0.002938,0,0,0.008211,no
0.00426,0.003047,0,0,0.008211,no
0,0,0,0,0,no
0,0,0,0,0,no
0,0,0,0,0,no
0,0,0,0,0,no
0,0,0,0,0,no
0,0,0.03125,0,0,no
0,0,0.03125,0,0,no
0,0,0,0,0,no
0,0,0,0,0,no
0,0,0,0,0,no
0,0,0,0,0,no
0.028722,0.100435,0,0,0.135709,no
0.001239,0.000871,0,0,0.001239,no
0.001239,0.000871,0,0,0.001239,no
0,0,0,0,0,no
0,0,0,0,0,no
0.00031,0.000109,0,0,0.00031,no
0,0,0,0,0,no
0.00031,0.000109,0.03125,0,0.00031,no
0,0,0,0,0,no
0.00031,0.000109,0,0,0.00031,no
0.00031,0.000109,0,0,0.00031,no
0,0,0,0,0,no
0.00031,0.000109,0,0,0.00031,no
0.00031,0.000109,0.03125,0,0.00031,no
0.00031,0.000109,0.03125,0,0.00031,no
0.00062,0.000218,0.03125,0,0.00031,no
0,0,0.03125,0,0,no
0.046476,0.097388,0.25,0.333333,0.135709,no
0,0,0.03125,0,0,no
0.00031,0.000109,0.15625,0.333333,0.00031,no
0.068242,0.095647,0,0,0.135709,no
0.135709,0.095321,0,0,0.135709,no
0.135709,0.095321,0,0,0.135709,no
0.068784,0.096627,0,0,0.135709,no
0.068784,0.096627,0,0,0.135709,no
0.068784,0.096627,0,0,0.135709,no
0.035864,0.099891,0.03125,0,0.135709,no
0.046527,0.097824,0,0,0.135709,no
0,0,0,0,0,no
0,0,0,0,0,no
0,0,0,0,0,no
0,0,0,0,0,no
0.135709,0.095321,0,0,0.135709,no
0.068706,0.0963,0.03125,0,0.135709,no
0.069558,0.097171,0.0625,0,0.135709,no
0.069094,0.096736,0.03125,0,0.135709,no
0.068474,0.095756,0.0625,0,0.135709,no
0.068319,0.095647,0.03125,0,0.135709,no
0.068009,0.09543,0,0,0.135709,no
0.068397,0.096083,0.03125,0,0.135709,no
0.068397,0.096083,0.03125,0,0.135709,no
0.135709,0.095321,0,0,0.135709,no
0.135709,0.095321,0.03125,0,0.135709,no
0.135709,0.095321,0.03125,0,0.135709,no
0.135709,0.095321,0,0,0.135709,no
0.135709,0.095321,0,0,0.135709,no
0.135709,0.095321,0,0,0.135709,no
0.135709,0.095321,0,0,0.135709,no
0.135709,0.095321,0,0,0.135709,no
0.135709,0.095321,0,0,0.135709,no
0.135709,0.095321,0,0,0.135709,no
0.068319,0.095974,0,0,0.135709,no
0.069481,0.096518,0,0,0.135709,no
0.070798,0.09815,0,0,0.135709,no
0.089698,0.063003,0,0,0.089698,no
0.089698,0.063003,0,0,0.089698,no
0,0,0,0,0,no
0,0,0.03125,0,0,no
0,0,0.03125,0,0,no
0.068629,0.096083,0,0,0.135709,no
0.068009,0.09543,0,0,0.135709,no
0.021998,0.007943,0,0,0.021998,no
0.00031,0.000109,0,0,0.00031,no
0,0,0,0,0,no
0,0,0,0,0,no
0.089698,0.063003,0,0,0.089698,no
0.089698,0.063003,0,0,0.089698,no
0,0,0,0,0,no
0,0,0.03125,0,0,no
0,0,0.03125,0,0,no
0,0,0,0,0,no
0,0,0.03125,0,0,no
0.008521,0.003047,0.03125,0,0.008211,no
0.008211,0.002938,0.0625,0,0.008211,no
0.008211,0.002938,0,0,0.008211,no
0.00426,0.003047,0,0,0.008211,no
0,0,0,0,0,no
0,0,0,0,0,no
0,0,0,0,0,no
0,0,0,0,0,no
0,0,0,0,0,no
0,0,0.03125,0,0,no
0,0,0.03125,0,0,no
0,0,0,0,0,no
0,0,0,0,0,no
0,0,0,0,0,no
0,0,0,0,0,no
0.068861,0.0963,0,0,0.135709,no
0.001239,0.000871,0,0,0.001239,no
0.001239,0.000871,0,0,0.001239,no
0,0,0,0,0,no
0,0,0,0,0,no
0.00031,0.000109,0,0,0.00031,no
0,0,0,0,0,no
0.00031,0.000109,0.03125,0,0.00031,no
0,0,0,0,0,no
0.00031,0.000109,0,0,0.00031,no
0.00031,0.000109,0,0,0.00031,no
0,0,0,0,0,no
0.00031,0.000109,0,0,0.00031,no
0.00031,0.000109,0.03125,0,0.00031,no
0.00031,0.000109,0.03125,0,0.00031,no
0.00062,0.000218,0.03125,0,0.00031,no
0,0,0.03125,0,0,no
0.068706,0.096192,0.09375,0,0.135709,no
0,0,0.03125,0,0,no
0.00031,0.000109,0.15625,0.333333,0.00031,no
0.089698,0.063003,0,0,0.089698,no
0.089698,0.063003,0,0,0.089698,no
0.044926,0.063112,0.03125,0,0.089698,no
0,0,0,0,0,no
0,0,0,0,0,no
0,0,0.03125,0,0,no
0,0,0.0625,0,0,no
0,0,0.03125,0,0,no
0,0,0.0625,0,0,no
0,0,0.03125,0,0,no
0,0,0,0,0,no
0,0,0.03125,0,0,no
0,0,0.03125,0,0,no
0.089698,0.063003,0,0,0.089698,no
0.089698,0.063003,0,0,0.089698,no
0,0,0,0,0,no
0.000465,0.000218,0,0,0.000465,no
0.021998,0.007943,0,0,0.021998,no
0.00031,0.000109,0,0,0.00031,no
0,0,0,0,0,no
0,0,0,0,0,no
0.089698,0.063003,0,0,0.089698,no
0.089698,0.063003,0,0,0.089698,no
0,0,0,0,0,no
0,0,0.03125,0,0,no
0.008521,0.003047,0.03125,0,0.008211,no
0.008211,0.002938,0.0625,0,0.008211,no
0.008211,0.002938,0,0,0.008211,no
0.00426,0.003047,0,0,0.008211,no
0,0,0,0,0,no
0,0,0,0,0,no
0,0,0,0,0,no
0,0,0,0,0,no
0,0,0,0,0,no
0,0,0.03125,0,0,no
0,0,0.03125,0,0,no
0,0,0,0,0,no
0,0,0,0,0,no
0,0,0,0,0,no
0,0,0,0,0,no
0.001394,0.000435,0,0,0.001394,no
0.001239,0.000871,0,0,0.001239,no
0.001239,0.000871,0,0,0.001239,no
0,0,0,0,0,no
0,0,0,0,0,no
0.00031,0.000109,0,0,0.00031,no
0,0,0,0,0,no
0.00031,0.000109,0.03125,0,0.00031,no
0,0,0,0,0,no
0.00031,0.000109,0,0,0.00031,no
0.00031,0.000109,0,0,0.00031,no
0,0,0,0,0,no
0.00031,0.000109,0,0,0.00031,no
0.00031,0.000109,0.03125,0,0.00031,no
0.00031,0.000109,0.03125,0,0.00031,no
0.00062,0.000218,0.03125,0,0.00031,no
0,0,0.03125,0,0,no
0.008675,0.006094,0.0625,0,0.008675,no
0,0,0.03125,0,0,no
0.00031,0.000109,0.15625,0.333333,0.00031,no
0.089698,0.063003,0,0,0.089698,no
0.089698,0.063003,0,0,0.089698,no
0.044926,0.063112,0.03125,0,0.089698,no
0,0,0,0,0,no
0.089698,0.063003,0,0,0.089698,no
0.089698,0.063003,0,0,0.089698,no
0.061735,0.086725,0,0,0.069404,no
0.061735,0.086725,0,0,0.069404,no
0.021998,0.007943,0,0,0.021998,no
0.00031,0.000109,0,0,0.00031,no
0,0,0,0,0,no
0,0,0,0,0,no
0.089698,0.063003,0,0,0.089698,no
0.089698,0.063003,0,0,0.089698,no
0,0,0,0,0,no
0,0,0.03125,0,0,no
0.008521,0.003047,0.03125,0,0.008211,no
0.008211,0.002938,0.0625,0,0.008211,no
0.008211,0.002938,0,0,0.008211,no
0.00426,0.003047,0,0,0.008211,no
0,0,0,0,0,no
0,0,0,0,0,no
0,0,0,0,0,no
0,0,0,0,0,no
0,0,0,0,0,no
0,0,0.03125,0,0,no
0,0,0.03125,0,0,no
0,0,0,0,0,no
0,0,0,0,0,no
0,0,0,0,0,no
0,0,0,0,0,no
0.061735,0.086725,0,0,0.069404,no
0.001239,0.000871,0,0,0.001239,no
0.001239,0.000871,0,0,0.001239,no
0,0,0,0,0,no
0,0,0,0,0,no
0.00031,0.000109,0,0,0.00031,no
0,0,0,0,0,no
0.00031,0.000109,0.03125,0,0.00031,no
0,0,0,0,0,no
0.00031,0.000109,0,0,0.00031,no
0.00031,0.000109,0,0,0.00031,no
0,0,0,0,0,no
0.00031,0.000109,0,0,0.00031,no
0.00031,0.000109,0.03125,0,0.00031,no
0.00031,0.000109,0.03125,0,0.00031,no
0.00062,0.000218,0.03125,0,0.00031,no
0,0,0.03125,0,0,no
0.061735,0.086725,0.0625,0,0.069404,no
0,0,0.03125,0,0,no
0.00031,0.000109,0.15625,0.333333,0.00031,no
0.089698,0.063003,0,0,0.089698,no
0.089698,0.063003,0,0,0.089698,no
0.044926,0.063112,0.03125,0,0.089698,no
0,0,0,0,0,no
0.089698,0.063003,0,0,0.089698,no
0.089698,0.063003,0,0,0.089698,no
0.069404,0.048749,0,0,0.069404,no
0.069404,0.048749,0,0,0.069404,no
0.021998,0.007943,0,0,0.021998,no
0.00031,0.000109,0,0,0.00031,no
0,0,0,0,0,no
0,0,0,0,0,no
0.089698,0.063003,0,0,0.089698,no
0.089698,0.063003,0,0,0.089698,no
0,0,0,0,0,no
0,0,0.03125,0,0,no
0.008521,0.003047,0.03125,0,0.008211,no
0.008211,0.002938,0.0625,0,0.008211,no
0.008211,0.002938,0,0,0.008211,no
0.00426,0.003047,0,0,0.008211,no
0,0,0,0,0,no
0,0,0,0,0,no
0,0,0,0,0,no
0,0,0,0,0,no
0,0,0,0,0,no
0,0,0.03125,0,0,no
0,0,0.03125,0,0,no
0,0,0,0,0,no
0,0,0,0,0,no
0,0,0,0,0,no
0,0,0,0,0,no
0,0,0,0,0,no
0.001239,0.000871,0,0,0.001239,no
0.001239,0.000871,0,0,0.001239,no
0,0,0,0,0,no
0,0,0,0,0,no
0.00031,0.000109,0,0,0.00031,no
0,0,0,0,0,no
0.00031,0.000109,0.03125,0,0.00031,no
0,0,0,0,0,no
0.00031,0.000109,0,0,0.00031,no
0.00031,0.000109,0,0,0.00031,no
0,0,0,0,0,no
0.00031,0.000109,0,0,0.00031,no
0.00031,0.000109,0.03125,0,0.00031,no
0.00031,0.000109,0.03125,0,0.00031,no
0.00062,0.000218,0.03125,0,0.00031,no
0,0,0.03125,0,0,no
0,0,0.0625,0,0,no
0,0,0.03125,0,0,no
0.00031,0.000109,0.15625,0.333333,0.00031,no
0.089698,0.063003,0,0,0.089698,no
0.089698,0.063003,0,0,0.089698,no
0.044926,0.063112,0.03125,0,0.089698,no
0,0,0,0,0,no
0.089698,0.063003,0,0,0.089698,no
0.089698,0.063003,0,0,0.089698,no
0.054067,0.037976,0,0,0.054067,no
0.054067,0.037976,0,0,0.054067,no
0.021998,0.007943,0,0,0.021998,no
0.00031,0.000109,0,0,0.00031,no
0,0,0,0,0,no
0,0,0,0,0,no
0.089698,0.063003,0,0,0.089698,no
0.089698,0.063003,0,0,0.089698,no
0,0,0,0,0,no
0,0,0.03125,0,0,no
0.008521,0.003047,0.03125,0,0.008211,no
0.008211,0.002938,0.0625,0,0.008211,no
0.008211,0.002938,0,0,0.008211,no
0.00426,0.003047,0,0,0.008211,no
0,0,0,0,0,no
0,0,0,0,0,no
0,0,0,0,0,no
0,0,0,0,0,no
0,0,0,0,0,no
0,0,0.03125,0,0,no
0,0,0.03125,0,0,no
0,0,0,0,0,no
0,0,0,0,0,no
0,0,0,0,0,no
0,0,0,0,0,no
0.054067,0.037976,0,0,0.054067,no
0.001239,0.000871,0,0,0.001239,no
0.001239,0.000871,0,0,0.001239,no
0,0,0,0,0,no
0,0,0,0,0,no
0.00031,0.000109,0,0,0.00031,no
0,0,0,0,0,no
0.00031,0.000109,0.03125,0,0.00031,no
0,0,0,0,0,no
0.00031,0.000109,0,0,0.00031,no
0.00031,0.000109,0,0,0.00031,no
0,0,0,0,0,no
0.00031,0.000109,0,0,0.00031,no
0.00031,0.000109,0.03125,0,0.00031,no
0.00031,0.000109,0.03125,0,0.00031,no
0.00062,0.000218,0.03125,0,0.00031,no
0,0,0.03125,0,0,no
0.054067,0.037976,0.0625,0,0.054067,no
0,0,0.03125,0,0,no
0.00031,0.000109,0.15625,0.333333,0.00031,no
0.089698,0.063003,0,0,0.089698,no
0.089698,0.063003,0,0,0.089698,no
0.044926,0.063112,0.03125,0,0.089698,no
0,0,0,0,0,no
0.00062,0.000218,0,0,0.00062,no
0.001549,0.000544,0,0,0.001239,no
0.00093,0.000326,0,0,0.00062,no
0.00062,0.000218,0,0,0.00062,no
0.021998,0.007943,0,0,0.021998,no
0.00031,0.000109,0,0,0.00031,no
0,0,0,0,0,no
0,0,0,0,0,no
0.00062,0.000218,0,0,0.00062,no
0.001549,0.000544,0,0,0.001239,no
0,0,0,0,0,no
0,0,0.03125,0,0,no
0.008521,0.003047,0.03125,0,0.008211,no
0.008211,0.002938,0.0625,0,0.008211,no
0.008211,0.002938,0,0,0.008211,no
0.00426,0.003047,0,0,0.008211,no
0,0,0,0,0,no
0,0,0,0,0,no
0,0,0,0,0,no
0,0,0,0,0,no
0,0,0,0,0,no
0,0,0.03125,0,0,no
0,0,0.03125,0,0,no
0,0,0,0,0,no
0,0,0,0,0,no
0,0,0,0,0,no
0,0,0,0,0,no
0,0,0,0,0,no
0.001239,0.000871,0,0,0.001239,no
0.001239,0.000871,0,0,0.001239,no
0,0,0,0,0,no
0,0,0,0,0,no
0.00031,0.000109,0,0,0.00031,no
0,0,0,0,0,no
0.00031,0.000109,0.03125,0,0.00031,no
0,0,0,0,0,no
0.00031,0.000109,0,0,0.00031,no
0.00031,0.000109,0,0,0.00031,no
0,0,0,0,0,no
0.00031,0.000109,0,0,0.00031,no
0.00031,0.000109,0.03125,0,0.00031,no
0.00031,0.000109,0.03125,0,0.00031,no
0.00062,0.000218,0.03125,0,0.00031,no
0,0,0.03125,0,0,no
0.001239,0.000435,0.0625,0,0.001239,no
0,0,0.03125,0,0,no
0.00031,0.000109,0.15625,0.333333,0.00031,no
0.00062,0.000218,0,0,0.00062,no
0.001549,0.000544,0,0,0.001239,no
0.001859,0.000653,0.03125,0,0.001239,no
0.00031,0.000109,0,0,0.00031,no
0.071159,0.149946,0,0,0.123005,no
0.071159,0.149946,0,0,0.123005,no
0.106352,0.149402,0,0,0.123005,no
0.106352,0.149402,0,0,0.123005,no
0.071572,0.150816,0,0,0.123005,no
0.071572,0.150816,0,0,0.123005,no
0.106352,0.149402,0,0,0.123005,no
0.106352,0.149402,0.03125,0,0.123005,no
0.071108,0.149837,0,0,0.123005,no
0.106352,0.149402,0.03125,0,0.123005,no
0.106352,0.149402,0.03125,0,0.123005,no
0.106352,0.149402,0,0,0.123005,no
0.106352,0.149402,0,0,0.123005,no
0.089698,0.063003,0,0,0.089698,no
0.089698,0.063003,0,0,0.089698,no
0.00093,0.000653,0,0,0.00093,no
0,0,0.03125,0,0,no
0,0,0.03125,0,0,no
0,0,0,0,0,no
0,0,0,0,0,no
0.021998,0.007943,0,0,0.021998,no
0.00031,0.000109,0,0,0.00031,no
0,0,0,0,0,no
0,0,0,0,0,no
0.071159,0.149946,0,0,0.123005,no
0.071159,0.149946,0,0,0.123005,no
0.106352,0.149402,0,0,0.123005,no
0.106352,0.149402,0,0,0.123005,no
0.071572,0.150816,0,0,0.123005,no
0.071572,0.150816,0,0,0.123005,no
0.106352,0.149402,0,0,0.123005,no
0.106352,0.149402,0.03125,0,0.123005,no
0.123005,0.086398,0.03125,0,0.123005,no
0.071108,0.149837,0,0,0.123005,no
0.106352,0.149402,0.03125,0,0.123005,no
0.106352,0.149402,0.03125,0,0.123005,no
0.106352,0.149402,0,0,0.123005,no
0.106352,0.149402,0,0,0.123005,no
0.089698,0.063003,0,0,0.089698,no
0.089698,0.063003,0,0,0.089698,no
0.00093,0.000653,0,0,0.00093,no
0,0,0.03125,0,0,no
0,0,0.03125,0,0,no
0,0,0,0,0,no
0,0,0.03125,0,0,no
0.008521,0.003047,0.03125,0,0.008211,no
0.008211,0.002938,0.0625,0,0.008211,no
0.008211,0.002938,0,0,0.008211,no
0.00426,0.003047,0,0,0.008211,no
0,0,0,0,0,no
0,0,0,0,0,no
0,0,0,0,0,no
0,0,0,0,0,no
0,0,0,0,0,no
0,0,0.03125,0,0,no
0,0,0.03125,0,0,no
0,0,0,0,0,no
0,0,0,0,0,no
0,0,0,0,0,no
0,0,0,0,0,no
0.070217,0.19728,0,0,0.123005,no
0.001239,0.000871,0,0,0.001239,no
0.001239,0.000871,0,0,0.001239,no
0,0,0,0,0,no
0,0,0,0,0,no
0.00031,0.000109,0,0,0.00031,no
0,0,0,0,0,no
0.00031,0.000109,0.03125,0,0.00031,no
0,0,0,0,0,no
0.00031,0.000109,0,0,0.00031,no
0.00031,0.000109,0,0,0.00031,no
0,0,0,0,0,no
0.00031,0.000109,0,0,0.00031,no
0.00031,0.000109,0.03125,0,0.00031,no
0.00031,0.000109,0.03125,0,0.00031,no
0.00062,0.000218,0.03125,0,0.00031,no
0,0,0.03125,0,0,no
0.092796,0.195539,0.28125,0.333333,0.123005,no
0,0,0.03125,0,0,no
0.00031,0.000109,0.15625,0.333333,0.00031,no
0.071159,0.149946,0,0,0.123005,no
0.071159,0.149946,0,0,0.123005,no
0.071159,0.149946,0.03125,0,0.123005,no
0.106352,0.149402,0,0,0.123005,no
0.106352,0.149402,0,0,0.123005,no
0.106352,0.149402,0,0,0.123005,no
0.106352,0.149402,0.03125,0,0.123005,no
0.106352,0.149402,0,0,0.123005,no
0.071572,0.150816,0,0,0.123005,no
0.071572,0.150816,0,0,0.123005,no
0.071572,0.150816,0,0,0.123005,no
0.071624,0.150925,0,0,0.123005,no
0.106352,0.149402,0,0,0.123005,no
0.106352,0.149402,0.03125,0,0.123005,no
0.071057,0.149728,0.03125,0,0.123005,no
0.106352,0.149402,0,0,0.123005,no
0.106352,0.149402,0,0,0.123005,no
0.071108,0.149837,0,0,0.123005,no
0.106352,0.149402,0.03125,0,0.123005,no
0.106352,0.149402,0.0625,0,0.123005,no
0.106352,0.149402,0.03125,0,0.123005,no
0.106352,0.149402,0.0625,0,0.123005,no
0.106352,0.149402,0.03125,0,0.123005,no
0.106352,0.149402,0,0,0.123005,no
0.106352,0.149402,0.03125,0,0.123005,no
0.106352,0.149402,0.03125,0,0.123005,no
0.106352,0.149402,0,0,0.123005,no
0.106352,0.149402,0,0,0.123005,no
0.106352,0.149402,0.03125,0,0.123005,no
0.089698,0.063003,0,0,0.089698,no
0.089698,0.063003,0,0,0.089698,no
0.089698,0.063003,0,0,0.089698,no
0.044926,0.063112,0.03125,0,0.089698,no
0,0,0,0,0,no
0.00093,0.000653,0,0,0.00093,no
0,0,0.03125,0,0,no
0,0,0.0625,0,0,no
0,0,0.03125,0,0,no
0.001239,0.000871,0.0625,0,0.001239,no
0.001394,0.001959,0.03125,0,0.001549,no
0,0,0,0,0,no
0,0,0.03125,0,0,no
0.000465,0.000326,0.03125,0,0.000465,no
0,0,0,0,0,no
0,0,0.03125,0,0,no
0,0,0.03125,0,0,no
0,0,0,0,0,no
0,0,0,0,0,no
0.021998,0.007943,0,0,0.021998,no
0.00031,0.000109,0,0,0.00031,no
0,0,0,0,0,no
0,0,0,0,0,no
0,0,0,0,0,no
0,0,0.03125,0,0,no
0,0,0.03125,0,0,no
0,0,0,0,0,no
0,0,0.03125,0,0,no
0.008521,0.003047,0.03125,0,0.008211,no
0.008211,0.002938,0.0625,0,0.008211,no
0.008211,0.002938,0,0,0.008211,no
0.00426,0.003047,0,0,0.008211,no
0,0,0,0,0,no
0,0,0,0,0,no
0,0,0,0,0,no
0,0,0,0,0,no
0,0,0,0,0,no
0,0,0.03125,0,0,no
0,0,0.03125,0,0,no
0,0,0,0,0,no
0,0,0,0,0,no
0,0,0,0,0,no
0,0,0,0,0,no
0.013943,0.009793,0,0,0.013943,no
0.001239,0.000871,0,0,0.001239,no
0.001239,0.000871,0,0,0.001239,no
0,0,0,0,0,no
0,0,0,0,0,no
0.00031,0.000109,0,0,0.00031,no
0,0,0,0,0,no
0.00031,0.000109,0.03125,0,0.00031,no
0,0,0,0,0,no
0.00031,0.000109,0,0,0.00031,no
0.00031,0.000109,0,0,0.00031,no
0,0,0,0,0,no
0.00031,0.000109,0,0,0.00031,no
0.00031,0.000109,0.03125,0,0.00031,no
0.00031,0.000109,0.03125,0,0.00031,no
0.00062,0.000218,0.03125,0,0.00031,no
0,0,0.03125,0,0,no
0,0,0.0625,0,0,no
0,0,0.03125,0,0,no
0.00031,0.000109,0.15625,0.333333,0.00031,no
0,0,0,0,0,no
0,0,0.03125,0,0,no
0,0,0.0625,0,0,no
0,0,0.03125,0,0,no
0,0,0.0625,0,0,no
0,0,0.03125,0,0,no
0,0,0,0,0,no
0,0,0.03125,0,0,no
0,0,0.03125,0,0,no
0,0,0,0,0,no
0.000542,0.000653,0.03125,0,0.000775,no
0,0,0.03125,0,0,no
0,0,0,0,0,no
0,0,0,0,0,no
0.021998,0.007943,0,0,0.021998,no
0.00031,0.000109,0,0,0.00031,no
0,0,0,0,0,no
0,0,0,0,0,no
0,0,0,0,0,no
0.000542,0.000653,0.03125,0,0.000775,no
0,0,0.03125,0,0,no
0,0,0,0,0,no
0,0,0.03125,0,0,no
0.008521,0.003047,0.03125,0,0.008211,no
0.008211,0.002938,0.0625,0,0.008211,no
0.008211,0.002938,0,0,0.008211,no
0.00426,0.003047,0,0,0.008211,no
0,0,0,0,0,no
0,0,0,0,0,no
0,0,0,0,0,no
0,0,0,0,0,no
0,0,0,0,0,no
0,0,0.03125,0,0,no
0,0,0.03125,0,0,no
0,0,0,0,0,no
0,0,0,0,0,no
0,0,0,0,0,no
0,0,0,0,0,no
0,0,0,0,0,no
0.001239,0.000871,0,0,0.001239,no
0.001239,0.000871,0,0,0.001239,no
0,0,0,0,0,no
0,0,0,0,0,no
0.00031,0.000109,0,0,0.00031,no
0,0,0,0,0,no
0.00031,0.000109,0.03125,0,0.00031,no
0,0,0,0,0,no
0.00031,0.000109,0,0,0.00031,no
0.00031,0.000109,0,0,0.00031,no
0,0,0,0,0,no
0.00031,0.000109,0,0,0.00031,no
0.00031,0.000109,0.03125,0,0.00031,no
0.00031,0.000109,0.03125,0,0.00031,no
0.00062,0.000218,0.03125,0,0.00031,no
0,0,0.03125,0,0,no
0,0,0.0625,0,0,no
0,0,0.03125,0,0,no
0.00031,0.000109,0.15625,0.333333,0.00031,no
0,0,0,0,0,no
0.000542,0.000653,0.03125,0,0.000775,no
0.000697,0.000762,0.0625,0,0.000775,no
0.00031,0.000109,0.03125,0,0.00031,no
0,0,0.0625,0,0,no
0,0,0.03125,0,0,no
0,0,0,0,0,no
0,0,0.03125,0,0,no
0,0,0.03125,0,0,no
0,0,0,0,0,no
0,0,0.03125,0,0,no
0,0,0.03125,0,0,no
0,0,0,0,0,no
0,0,0.03125,0,0,no
0,0,0.03125,0,0,no
0.013943,0.009793,0,0,0.013943,no
0.013943,0.009793,0.03125,0,0.013943,no
0.013943,0.009793,0.03125,0,0.013943,no
0,0,0,0,0,no
0,0,0,0,0,no
0.021998,0.007943,0,0,0.021998,no
0.00031,0.000109,0,0,0.00031,no
0,0,0,0,0,no
0,0,0,0,0,no
0,0,0,0,0,no
0,0,0.03125,0,0,no
0,0,0.03125,0,0,no
0,0,0,0,0,no
0,0,0.03125,0,0,no
0,0,0.03125,0,0,no
0.013943,0.009793,0,0,0.013943,no
0.013943,0.009793,0.03125,0,0.013943,no
0.013943,0.009793,0.03125,0,0.013943,no
0,0,0,0,0,no
0,0,0.03125,0,0,no
0.008521,0.003047,0.03125,0,0.008211,no
0.008211,0.002938,0.0625,0,0.008211,no
0.008211,0.002938,0,0,0.008211,no
0.00426,0.003047,0,0,0.008211,no
0,0,0,0,0,no
0,0,0,0,0,no
0,0,0,0,0,no
0,0,0,0,0,no
0,0,0,0,0,no
0,0,0.03125,0,0,no
0,0,0.03125,0,0,no
0,0,0,0,0,no
0,0,0,0,0,no
0,0,0,0,0,no
0,0,0,0,0,no
0,0,0,0,0,no
0.001239,0.000871,0,0,0.001239,no
0.001239,0.000871,0,0,0.001239,no
0,0,0,0,0,no
0,0,0,0,0,no
0.00031,0.000109,0,0,0.00031,no
0,0,0,0,0,no
0.00031,0.000109,0.03125,0,0.00031,no
0,0,0,0,0,no
0.00031,0.000109,0,0,0.00031,no
0.00031,0.000109,0,0,0.00031,no
0,0,0,0,0,no
0.00031,0.000109,0,0,0.00031,no
0.00031,0.000109,0.03125,0,0.00031,no
0.00031,0.000109,0.03125,0,0.00031,no
0.00062,0.000218,0.03125,0,0.00031,no
0,0,0.03125,0,0,no
0.000465,0.000326,0.125,0,0.000465,no
0,0,0.03125,0,0,no
0.00031,0.000109,0.15625,0.333333,0.00031,no
0,0,0,0,0,no
0,0,0.03125,0,0,no
0,0,0.0625,0,0,no
0,0,0.03125,0,0,no
0,0,0.0625,0,0,no
0,0,0.03125,0,0,no
0,0,0,0,0,no
0,0,0.03125,0,0,no
0,0,0.03125,0,0,no
0,0,0,0,0,no
0,0,0.03125,0,0,no
0,0,0.0625,0,0,no
0,0,0.03125,0,0,no
0,0,0.0625,0,0,no
0,0,0.03125,0,0,no
0,0,0,0,0,no
0,0,0.03125,0,0,no
0.013943,0.009793,0.03125,0,0.013943,no
0.013943,0.009793,0,0,0.013943,no
0.013943,0.009793,0.03125,0,0.013943,no
0.013943,0.009793,0.0625,0,0.013943,no
0.013943,0.009793,0.03125,0,0.013943,no
0.013943,0.009793,0.0625,0,0.013943,no
0.013943,0.009793,0.03125,0,0.013943,no
0.013943,0.009793,0,0,0.013943,no
0.013943,0.009793,0.03125,0,0.013943,no
0.013943,0.009793,0.03125,0,0.013943,no
0,0,0,0,0,no
0,0,0.03125,0,0,no
0,0,0.03125,0,0,no
0,0,0,0,0,no
0,0,0,0,0,no
0,0,0,0,0,no
0,0,0,0,0,no
0.021998,0.007943,0,0,0.021998,no
0.00031,0.000109,0,0,0.00031,no
0,0,0,0,0,no
0,0,0,0,0,no
0,0,0,0,0,no
0,0,0.03125,0,0,no
0,0,0.03125,0,0,no
0,0,0,0,0,no
0,0,0,0,0,no
0,0,0,0,0,no
0,0,0.03125,0,0,no
0.008521,0.003047,0.03125,0,0.008211,no
0.008211,0.002938,0.0625,0,0.008211,no
0.008211,0.002938,0,0,0.008211,no
0.00426,0.003047,0,0,0.008211,no
0,0,0,0,0,no
0,0,0,0,0,no
0,0,0,0,0,no
0,0,0,0,0,no
0,0,0,0,0,no
0,0,0.03125,0,0,no
0,0,0.03125,0,0,no
0,0,0,0,0,no
0,0,0,0,0,no
0,0,0,0,0,no
0,0,0,0,0,no
0,0,0,0,0,no
0.001239,0.000871,0,0,0.001239,no
0.001239,0.000871,0,0,0.001239,no
0,0,0,0,0,no
0,0,0,0,0,no
0.00031,0.000109,0,0,0.00031,no
0,0,0,0,0,no
0.00031,0.000109,0.03125,0,0.00031,no
0,0,0,0,0,no
0.00031,0.000109,0,0,0.00031,no
0.00031,0.000109,0,0,0.00031,no
0,0,0,0,0,no
0.00031,0.000109,0,0,0.00031,no
0.00031,0.000109,0.03125,0,0.00031,no
0.00031,0.000109,0.03125,0,0.00031,no
0.00062,0.000218,0.03125,0,0.00031,no
0,0,0.03125,0,0,no
0,0,0.09375,0,0,no
0,0,0.03125,0,0,no
0.00031,0.000109,0.15625,0.333333,0.00031,no
0,0,0,0,0,no
0,0,0.03125,0,0,no
0,0,0.0625,0,0,no
0,0,0.03125,0,0,no
0,0,0.0625,0,0,no
0,0,0.03125,0,0,no
0,0,0,0,0,no
0,0,0.03125,0,0,no
0,0,0.03125,0,0,no
0,0,0,0,0,no
0,0,0,0,0,no
0,0,0,0,0,no
0,0,0,0,0,no
0.00031,0.000109,0,0,0.00031,no
0.00062,0.000218,0.03125,0,0.00031,no
0,0,0.03125,0,0,no
0,0,0,0,0,no
0.000542,0.000653,0.03125,0,0.000775,no
0,0,0.03125,0,0,no
0,0,0,0,0,no
0,0,0,0,0,no
0.021998,0.007943,0,0,0.021998,no
0.00031,0.000109,0,0,0.00031,no
0,0,0,0,0,no
0,0,0,0,0,no
0.00031,0.000109,0,0,0.00031,no
0.00062,0.000218,0.03125,0,0.00031,no
0,0,0.03125,0,0,no
0,0,0,0,0,no
0.000542,0.000653,0.03125,0,0.000775,no
0,0,0.03125,0,0,no
0,0,0,0,0,no
0,0,0.03125,0,0,no
0.008521,0.003047,0.03125,0,0.008211,no
0.008211,0.002938,0.0625,0,0.008211,no
0.008211,0.002938,0,0,0.008211,no
0.00426,0.003047,0,0,0.008211,no
0,0,0,0,0,no
0,0,0,0,0,no
0,0,0,0,0,no
0,0,0,0,0,no
0,0,0,0,0,no
0,0,0.03125,0,0,no
0,0,0.03125,0,0,no
0,0,0,0,0,no
0,0,0,0,0,no
0,0,0,0,0,no
0,0,0,0,0,no
0,0,0,0,0,no
0.001239,0.000871,0,0,0.001239,no
0.001239,0.000871,0,0,0.001239,no
0,0,0,0,0,no
0,0,0,0,0,no
0.00031,0.000109,0,0,0.00031,no
0,0,0,0,0,no
0.00031,0.000109,0.03125,0,0.00031,no
0,0,0,0,0,no
0.00031,0.000109,0,0,0.00031,no
0.00031,0.000109,0,0,0.00031,no
0,0,0,0,0,no
0.00031,0.000109,0,0,0.00031,no
0.00031,0.000109,0.03125,0,0.00031,no
0.00031,0.000109,0.03125,0,0.00031,no
0.00062,0.000218,0.03125,0,0.00031,no
0,0,0.03125,0,0,no
0.019985,0.00827,0.09375,0,0.017196,no
0,0,0.03125,0,0,no
0.00031,0.000109,0.15625,0.333333,0.00031,no
0.00031,0.000109,0,0,0.00031,no
0.00062,0.000218,0.03125,0,0.00031,no
0.00062,0.000653,0.0625,0,0.00062,no
0.00062,0.000218,0.03125,0,0.00031,no
0.000542,0.000544,0.0625,0,0.000465,no
0.00031,0.000109,0.03125,0,0.00031,no
0.00031,0.000109,0,0,0.00031,no
0,0,0.03125,0,0,no
0.001549,0.000979,0.03125,0,0.001239,no
0,0,0,0,0,no
0.000542,0.000653,0.03125,0,0.000775,no
0.000697,0.000762,0.0625,0,0.000775,no
0.00031,0.000109,0.03125,0,0.00031,no
0,0,0.0625,0,0,no
0,0,0.03125,0,0,no
0,0,0,0,0,no
0,0,0.03125,0,0,no
0,0,0.03125,0,0,no
0,0,0,0,0,no
0,0,0,0,0,no
0,0,0,0,0,no
0,0,0.03125,0,0,no
0,0,0.03125,0,0,no
0.024632,0.008923,0,0,0.024632,no
0.024632,0.008923,0,0,0.024632,no
0,0,0,0,0,no
0,0,0,0,0,no
0.021998,0.007943,0,0,0.021998,no
0.00031,0.000109,0,0,0.00031,no
0,0,0,0,0,no
0,0,0,0,0,no
0,0,0,0,0,no
0,0,0,0,0,no
0,0,0,0,0,no
0,0,0.03125,0,0,no
0,0,0.03125,0,0,no
0.024632,0.008923,0,0,0.024632,no
0.024632,0.008923,0,0,0.024632,no
0,0,0,0,0,no
0,0,0.03125,0,0,no
0.008521,0.003047,0.03125,0,0.008211,no
0.008211,0.002938,0.0625,0,0.008211,no
0.008211,0.002938,0,0,0.008211,no
0.00426,0.003047,0,0,0.008211,no
0,0,0,0,0,no
0,0,0,0,0,no
0,0,0,0,0,no
0,0,0,0,0,no
0,0,0,0,0,no
0,0,0.03125,0,0,no
0,0,0.03125,0,0,no
0,0,0,0,0,no
0,0,0,0,0,no
0,0,0,0,0,no
0,0,0,0,0,no
0,0,0,0,0,no
0.001239,0.000871,0,0,0.001239,no
0.001239,0.000871,0,0,0.001239,no
0,0,0,0,0,no
0,0,0,0,0,no
0.00031,0.000109,0,0,0.00031,no
0,0,0,0,0,no
0.00031,0.000109,0.03125,0,0.00031,no
0,0,0,0,0,no
0.00031,0.000109,0,0,0.00031,no
0.00031,0.000109,0,0,0.00031,no
0,0,0,0,0,no
0.00031,0.000109,0,0,0.00031,no
0.00031,0.000109,0.03125,0,0.00031,no
0.00031,0.000109,0.03125,0,0.00031,no
0.00062,0.000218,0.03125,0,0.00031,no
0,0,0.03125,0,0,no
0,0,0.125,0,0,no
0,0,0.03125,0,0,no
0.00031,0.000109,0.15625,0.333333,0.00031,no
0,0,0,0,0,no
0,0,0,0,0,no
0,0,0,0,0,no
0,0,0,0,0,no
0,0,0,0,0,no
0,0,0.03125,0,0,no
0,0,0.0625,0,0,no
0,0,0.03125,0,0,no
0,0,0.0625,0,0,no
0,0,0.03125,0,0,no
0,0,0,0,0,no
0,0,0.03125,0,0,no
0.024632,0.008923,0.03125,0,0.024632,no
0.024632,0.008923,0,0,0.024632,no
0.024632,0.008923,0,0,0.024632,no
0.024632,0.008923,0,0,0.024632,no
0.024632,0.008923,0,0,0.024632,no
0,0,0.03125,0,0,no
0,0,0.03125,0,0,no
0,0,0.03125,0,0,no
0,0,0.03125,0,0,no
0,0,0.03125,0,0,no
0.024632,0.008923,0,0,0.024632,no
0.024632,0.008923,0,0,0.024632,no
0.021998,0.007943,0,0,0.021998,no
0.00031,0.000109,0,0,0.00031,no
0,0,0,0,0,no
0,0,0,0,0,no
0,0,0.03125,0,0,no
0,0,0.03125,0,0,no
0,0,0.03125,0,0,no
0,0,0.03125,0,0,no
0,0,0.03125,0,0,no
0,0,0,0,0,no
0,0,0.03125,0,0,no
0.008521,0.003047,0.03125,0,0.008211,no
0.008211,0.002938,0.0625,0,0.008211,no
0.008211,0.002938,0,0,0.008211,no
0.00426,0.003047,0,0,0.008211,no
0,0,0,0,0,no
0,0,0,0,0,no
0,0,0,0,0,no
0,0,0,0,0,no
0,0,0,0,0,no
0,0,0.03125,0,0,no
0,0,0.03125,0,0,no
0,0,0,0,0,no
0,0,0,0,0,no
0,0,0,0,0,no
0,0,0,0,0,no
0.00031,0.000109,0,0,0.00031,no
0.001239,0.000871,0,0,0.001239,no
0.001239,0.000871,0,0,0.001239,no
0,0,0,0,0,no
0,0,0,0,0,no
0.00031,0.000109,0,0,0.00031,no
0,0,0,0,0,no
0.00031,0.000109,0.03125,0,0.00031,no
0,0,0,0,0,no
0.00031,0.000109,0,0,0.00031,no
0.00031,0.000109,0,0,0.00031,no
0,0,0,0,0,no
0.00031,0.000109,0,0,0.00031,no
0.00031,0.000109,0.03125,0,0.00031,no
0.00031,0.000109,0.03125,0,0.00031,no
0.00062,0.000218,0.03125,0,0.00031,no
0,0,0.03125,0,0,no
0,0,0.21875,0.333333,0,no
0,0,0.03125,0,0,no
0.00031,0.000109,0.15625,0.333333,0.00031,no
0,0,0.03125,0,0,no
0,0,0.03125,0,0,no
0,0,0.03125,0,0,no
0,0,0.03125,0,0,no
0,0,0.0625,0,0,no
0,0,0.03125,0,0,no
0,0,0.0625,0,0,no
0,0,0.0625,0,0,no
0,0,0.03125,0,0,no
0,0,0.03125,0,0,no
0.000775,0.000544,0.03125,0,0.000775,no
0,0,0.03125,0,0,no
0,0,0.03125,0,0,no
0,0,0,0,0,no
0,0,0.03125,0,0,no
0,0,0.03125,0,0,no
0,0,0,0,0,no
0,0,0,0,0,no
0,0,0,0,0,no
0,0,0.03125,0,0,no
0.021146,0.014908,0,0,0.021224,no
0.014304,0.015125,0.03125,0,0.021224,no
0,0,0,0,0,no
0,0,0,0,0,no
0,0,0,0,0,no
0,0,0,0,0,no
0.021998,0.007943,0,0,0.021998,no
0.00031,0.000109,0,0,0.00031,no
0,0,0,0,0,no
0,0,0,0,0,no
0.021146,0.014908,0,0,0.021224,no
0.014304,0.015125,0.03125,0,0.021224,no
0,0,0.03125,0,0,no
0,0,0,0,0,no
0,0,0,0,0,no
0,0,0,0,0,no
0,0,0.03125,0,0,no
0.008521,0.003047,0.03125,0,0.008211,no
0.008211,0.002938,0.0625,0,0.008211,no
0.008211,0.002938,0,0,0.008211,no
0.00426,0.003047,0,0,0.008211,no
0,0,0,0,0,no
0,0,0,0,0,no
0,0,0,0,0,no
0,0,0,0,0,no
0,0,0,0,0,no
0,0,0.03125,0,0,no
0,0,0.03125,0,0,no
0,0,0,0,0,no
0,0,0,0,0,no
0,0,0,0,0,no
0,0,0,0,0,no
0,0,0,0,0,no
0.001239,0.000871,0,0,0.001239,no
0.001239,0.000871,0,0,0.001239,no
0,0,0,0,0,no
0,0,0,0,0,no
0.00031,0.000109,0,0,0.00031,no
0,0,0,0,0,no
0.00031,0.000109,0.03125,0,0.00031,no
0,0,0,0,0,no
0.00031,0.000109,0,0,0.00031,no
0.00031,0.000109,0,0,0.00031,no
0,0,0,0,0,no
0.00031,0.000109,0,0,0.00031,no
0.00031,0.000109,0.03125,0,0.00031,no
0.00031,0.000109,0.03125,0,0.00031,no
0.00062,0.000218,0.03125,0,0.00031,no
0,0,0.03125,0,0,no
0,0,0.09375,0,0,no
0,0,0.03125,0,0,no
0.00031,0.000109,0.15625,0.333333,0.00031,no
0.021146,0.014908,0,0,0.021224,no
0.014304,0.015125,0.03125,0,0.021224,no
0.021146,0.014908,0.03125,0,0.021224,no
0.021146,0.014908,0,0,0.021224,no
0.021146,0.014908,0,0,0.021224,no
0,0,0,0,0,no
0,0,0,0,0,no
0,0,0,0,0,no
0,0,0,0,0,no
0,0,0,0,0,no
0,0,0.03125,0,0,no
0.021998,0.007943,0,0,0.021998,no
0.021998,0.007943,0,0,0.021998,no
0,0,0,0,0,no
0,0,0,0,0,no
0.021998,0.007943,0,0,0.021998,no
0.00031,0.000109,0,0,0.00031,no
0,0,0,0,0,no
0,0,0,0,0,no
0,0,0,0,0,no
0,0,0.03125,0,0,no
0.00031,0.000218,0.03125,0,0.00031,no
0.021998,0.007943,0,0,0.021998,no
0.021998,0.007943,0,0,0.021998,no
0,0,0,0,0,no
0,0,0.03125,0,0,no
0.008521,0.003047,0.03125,0,0.008211,no
0.008211,0.002938,0.0625,0,0.008211,no
0.008211,0.002938,0,0,0.008211,no
0.00426,0.003047,0,0,0.008211,no
0,0,0,0,0,no
0,0,0,0,0,no
0,0,0,0,0,no
0,0,0,0,0,no
0,0,0,0,0,no
0,0,0.03125,0,0,no
0,0,0.03125,0,0,no
0,0,0,0,0,no
0,0,0,0,0,no
0,0,0,0,0,no
0,0,0,0,0,no
0,0,0,0,0,no
0.001239,0.000871,0,0,0.001239,no
0.001239,0.000871,0,0,0.001239,no
0,0,0,0,0,no
0,0,0,0,0,no
0.00031,0.000109,0,0,0.00031,no
0,0,0,0,0,no
0.00031,0.000109,0.03125,0,0.00031,no
0,0,0,0,0,no
0.00031,0.000109,0,0,0.00031,no
0.00031,0.000109,0,0,0.00031,no
0,0,0,0,0,no
0.00031,0.000109,0,0,0.00031,no
0.00031,0.000109,0.03125,0,0.00031,no
0.00031,0.000109,0.03125,0,0.00031,no
0.00062,0.000218,0.03125,0,0.00031,no
0,0,0.03125,0,0,no
0.000775,0.000544,0.09375,0,0.000775,no
0,0,0.03125,0,0,no
0.00031,0.000109,0.15625,0.333333,0.00031,no
0,0,0,0,0,no
0,0,0.03125,0,0,no
0.00031,0.000109,0.03125,0,0.00031,no
0,0,0,0,0,no
0.021998,0.007943,0,0,0.021998,no
0.021998,0.007943,0,0,0.021998,no
0.021998,0.007943,0,0,0.021998,no
0.021998,0.007943,0,0,0.021998,no
0.021998,0.007943,0,0,0.021998,no
0,0,0,0,0,no
0,0,0,0,0,no
0.021998,0.007943,0,0,0.021998,no
0.021998,0.007943,0,0,0.021998,no
0.021998,0.007943,0,0,0.021998,no
0.00031,0.000109,0,0,0.00031,no
0,0,0,0,0,no
0,0,0,0,0,no
0,0,0,0,0,no
0,0,0,0,0,no
0,0,0,0,0,no
0,0,0.03125,0,0,no
0.008521,0.003047,0.03125,0,0.008211,no
0.008211,0.002938,0.0625,0,0.008211,no
0.008211,0.002938,0,0,0.008211,no
0.00426,0.003047,0,0,0.008211,no
0,0,0,0,0,no
0,0,0,0,0,no
0,0,0,0,0,no
0,0,0,0,0,no
0,0,0,0,0,no
0,0,0.03125,0,0,no
0,0,0.03125,0,0,no
0,0,0,0,0,no
0,0,0,0,0,no
0,0,0,0,0,no
0,0,0,0,0,no
0.00031,0.000109,0,0,0.00031,no
0.001239,0.000871,0,0,0.001239,no
0.001239,0.000871,0,0,0.001239,no
0,0,0,0,0,no
0,0,0,0,0,no
0.00031,0.000109,0,0,0.00031,no
0,0,0,0,0,no
0.00031,0.000109,0.03125,0,0.00031,no
0,0,0,0,0,no
0.00031,0.000109,0,0,0.00031,no
0.00031,0.000109,0,0,0.00031,no
0,0,0,0,0,no
0.00031,0.000109,0,0,0.00031,no
0.00031,0.000109,0.03125,0,0.00031,no
0.00031,0.000109,0.03125,0,0.00031,no
0.00062,0.000218,0.03125,0,0.00031,no
0,0,0.03125,0,0,no
0,0,0.0625,0,0,no
0,0,0.03125,0,0,no
0.00031,0.000109,0.15625,0.333333,0.00031,no
0,0,0,0,0,no
0,0,0,0,0,no
0,0,0,0,0,no
0,0,0,0,0,no
0,0,0,0,0,no
0.008056,0.003264,0,0.333333,0.001549,no
0,0,0.0625,0,0,no
0,0,0.0625,0,0,no
0,0,0,0,0,no
0,0,0,0,0,no
0,0,0,0,0,no
0,0,0.125,0.333333,0,no
0,0,0,0,0,no
0,0,0,0,0,no
0.00031,0.000109,0.125,0,0.00031,no
0,0,0.0625,0.333333,0,no
0,0,0,0,0,no
0.000775,0.000544,0,0,0.000775,no
0.000775,0.000544,0,0,0.000775,no
0,0,0,0,0,no
0.002169,0.001523,0,0,0.002169,no
0.003563,0.002503,0.03125,0,0.003563,no
0.003563,0.002503,0.0625,0,0.003563,no
0,0,0,0,0,no
0.002479,0.001741,0.0625,0,0.002479,no
0,0,0,0,0,no
0.001239,0.000871,0.03125,0,0.001239,no
0.00488,0.006638,0.03125,0,0.00914,no
0.00914,0.00642,0,0,0.00914,no
0.00914,0.00642,0,0,0.00914,no
0.00914,0.00642,0.0625,0,0.00914,no
0.00914,0.00642,0,0,0.00914,no
0.00914,0.00642,0,0,0.00914,no
0.004725,0.006529,0,0,0.00914,no
0.001549,0.001415,0.03125,0.333333,0.001549,no
0.000775,0.000871,0,0,0.00093,no
0,0,0,0,0,no
0,0,0,0,0,no
0,0,0,0,0,no
0.001394,0.000979,0,0,0.001394,no
0,0,0,0,0,no
0,0,0,0,0,no
0.004338,0.00272,0.0625,0.333333,0.004338,no
0.004338,0.001959,0.03125,0,0.003408,no
0,0,0,0,0,no
0.001394,0.000653,0.09375,0.333333,0.00062,no
0,0,0,0,0,no
0.00395,0.003264,0.0625,0.333333,0.004338,no
0.004338,0.001959,0.03125,0,0.003408,no
0,0,0,0,0,no
0.002324,0.000979,0,0,0.002324,no
0.006301,0.007399,0.375,0.666667,0.004802,no
0.004338,0.001959,0.03125,0,0.003408,no
0,0,0,0,0,no
0.002685,0.0037,0.03125,0.333333,0.001859,no
0.001317,0.001523,0,0,0.001704,no
0,0,0,0,0,no
0.004338,0.001959,0.0625,0.333333,0.003408,no
0.004338,0.001959,0.03125,0,0.003408,no
0,0,0,0,0,no
0.002479,0.001741,0,0,0.002479,no
0,0,0,0,0,no
0,0,0,0,0,no
0,0,0,0,0,no
0,0,0,0,0,no
0,0,0,0,0,no
0,0,0,0,0,no
0,0,0,0,0,no
0.000155,0.000109,0.03125,0.333333,0.000155,no
0,0,0,0,0,no
0,0,0.0625,0,0,no
0.003873,0.00272,0.09375,0,0.003873,no
0.003873,0.00272,0.09375,0,0.003873,no
0.003873,0.00272,0.09375,0,0.003873,no
0.003873,0.00272,0.09375,0,0.003873,no
0.003873,0.00272,0.09375,0,0.003873,no
0.003873,0.00272,0.09375,0,0.003873,no
0.003873,0.00272,0.09375,0,0.003873,no
0,0,0.03125,0.333333,0,no
0.001394,0.000979,0,0,0.001394,no
0.003873,0.00272,0.09375,0,0.003873,no
0.003873,0.00272,0.09375,0,0.003873,no
0.003873,0.00272,0.09375,0,0.003873,no
0.003873,0.00272,0.09375,0,0.003873,no
0.003873,0.00272,0.09375,0,0.003873,no
0.003873,0.00272,0.09375,0,0.003873,no
0.003873,0.00272,0.09375,0,0.003873,no
0,0,0.03125,0.333333,0,no
0.003873,0.00272,0.09375,0,0.003873,no
0.003873,0.00272,0.09375,0,0.003873,no
0.002634,0.001741,0,0,0.002634,no
0.002943,0.001959,0.125,0.333333,0.002634,no
0.003873,0.00272,0.09375,0,0.003873,no
0,0,0.03125,0,0,no
0.001936,0.000979,0.0625,0,0.002324,no
0,0,0.03125,0,0,no
0.003873,0.00272,0.09375,0,0.003873,no
0.000155,0.000109,0,0.333333,0.000155,no
0,0,0,0,0,no
0,0,0,0,0,no
0,0,0,0,0,no
0,0,0,0,0,no
0,0,0,0,0,no
0,0,0,0,0,no
0,0,0,0,0,no
0.000155,0.000109,0.125,0.333333,0.000155,no
0,0,0.03125,0,0,no
0,0,0.03125,0,0,no
0,0,0.03125,0,0,no
0.001136,0.002176,0.21875,0.333333,0.002634,no
0,0,0,0,0,no
0,0,0,0,0,no
0.000465,0.000218,0.09375,0,0.00062,no
0,0,0,0,0,no
0,0,0.03125,0,0,no
0.012393,0.005005,0.21875,0.333333,0.015957,no
0.002014,0.002829,0.1875,0.333333,0.002789,no
0,0,0,0,0,no
0,0,0,0,0,no
0,0,0.09375,0.333333,0,no
0,0,0.03125,0,0,no
0.001084,0.000544,0.125,0,0.00093,no
0,0,0,0,0,no
0,0,0,0,0,no
0,0,0.03125,0,0,no
0.002789,0.000109,0.03125,0,0.002789,no
0,0,0.09375,0,0,no
0.001239,0.000435,0.125,0,0.00093,no
0.001239,0.000435,0.21875,0.333333,0.00093,no
0.002943,0.001197,0.375,0.666667,0.001084,no
0,0,0.15625,0.333333,0,no
0,0,0.03125,0,0,no
0,0,0,0,0,no
0,0,0.03125,0,0,no
0,0,0.03125,0,0,no
0,0,0.15625,0.333333,0,no
0.004648,0.001632,0,0,0.004648,no
0.004648,0.001632,0,0,0.004648,no
0.004648,0.001632,0,0,0.004648,no
0.001859,0.001306,0.09375,0,0.00093,no
0.002324,0.001632,0.03125,0,0.001549,no
0.001859,0.000653,0,0,0.001239,no
0.001549,0.001088,0,0,0.001859,no
0.002479,0.002612,0.03125,0.333333,0.002169,no
0.001549,0.000544,0,0.333333,0.00093,no
0.00093,0.000326,0,0,0.00093,no
0,0,0,0,0,no
0.001239,0.000435,0.03125,0,0.00062,no
0.002943,0.002067,0.03125,0.333333,0.001239,no
0.001859,0.000653,0,0,0.00093,no
0.00062,0.000435,0,0,0.00093,no
0,0,0,0,0,no
0.003408,0.001197,0,0,0.001239,no
0.002789,0.000979,0,0,0.002789,no
0.006197,0.002176,0.03125,0.333333,0.002169,no
0.001239,0.000435,0,0,0.001239,no
0,0,0,0,0,no
0,0,0,0,0,no
0,0,0,0,0,no
0,0,0,0,0,no
0,0,0,0,0,no
0,0,0.03125,0,0,no
0,0,0.03125,0,0,no
0.000775,0.000544,0.03125,0,0.000775,no
0.000775,0.000544,0,0,0.000775,no
0.00093,0.000653,0,0,0.00093,no
0.001317,0.001741,0,0,0.001704,no
0.001136,0.002176,0,0,0.001704,no
0.000775,0.000544,0,0,0.000775,yes
0.000775,0.000544,0,0,0.000775,no
0,0,0,0,0,no
0,0,0,0,0,no
0,0,0,0,0,no
0,0,0,0,0,no
0.000775,0.000544,0,0,0.000775,no
0.000775,0.000544,0,0,0.000775,no
0.001084,0.000762,0,0,0.001084,no
0.00093,0.001306,0.03125,0,0.001084,no
0.000852,0.001088,0.03125,0,0.00093,no
0,0,0,0,0,no
0.001317,0.001306,0,0,0.001549,no
0.001704,0.001197,0,0,0.001704,no
0.001007,0.001306,0.03125,0,0.001704,no
0.004183,0.002938,0,0,0.004183,no
0.002556,0.007182,0,0,0.004183,no
0.003304,0.006964,0.0625,0,0.004183,no
0,0,0,0,0,no
0.001084,0.000762,0,0,0.001084,no
0.001084,0.000653,0,0,0.001084,no
0.001394,0.000979,0,0,0.001394,no
0.001549,0.000762,0,0,0.001549,no
0.001549,0.000762,0,0,0.001549,no
0.001549,0.000762,0,0,0.001549,no
0.001859,0.000979,0,0,0.001859,no
0,0,0,0,0,no
0,0,0,0,0,no
0,0,0.03125,0,0,no
0,0,0.03125,0,0,no
0,0,0,0,0,no
0,0,0.15625,0.333333,0,yes
0,0,0,0,0,no
0,0,0,0,0,no
0.002789,0.001959,0,0,0.002789,no
0.002789,0.001959,0,0,0.002789,no
0,0,0,0,0,no
0,0,0,0,0,no
0.00031,0.000218,0,0,0.00031,no
0,0,0,0,0,no
0,0,0,0,0,no
0,0,0,0,0,no
0,0,0,0,0,no
0,0,0,0,0,no
0,0,0,0,0,no
0,0,0,0,0,no
0,0,0.0625,0,0,no
0,0,0.0625,0,0,no
0,0,0,0,0,no
0,0,0,0,0,no
0,0,0,0,0,no
0,0,0,0,0,no
0,0,0,0,0,no
0,0,0,0,0,no
0,0,0,0,0,no
0,0,0.0625,0,0,no
0,0,0.03125,0,0,no
0.00062,0.000435,0,0,0.00062,no
0.000775,0.000544,0,0,0.000775,no
0,0,0,0,0,no
0,0,0,0,0,no
0,0,0,0,0,no
0,0,0,0,0,no
0,0,0,0,0,no
0.000569,0.000762,0,0,0.001084,no
0.000465,0.000218,0,0.333333,0.000465,no
0,0,0,0.333333,0,no
0,0,0,0,0,no
0,0,0,0,0,no
0.001394,0.000979,0,0,0.001394,no
0.001394,0.000871,0,0,0.001394,no
0,0,0,0,0,yes
0.00031,0.000109,0.0625,0,0.00031,no
0.000991,0.003156,0.03125,0,0.003253,no
0.001782,0.002394,0,0,0.003253,yes
0.001755,0.003264,0,0,0.003253,no
0.000465,0.000544,0,0,0.00062,no
0.000697,0.000653,0.03125,0,0.001084,no
0.002634,0.003482,0,0.333333,0.004338,yes
0.002995,0.003264,0,0.333333,0.004338,no
0.00031,0.000109,0.03125,0,0.00031,no
0.000465,0.000544,0.0625,0,0.00062,no
0,0,0,0,0,yes
0,0,0.03125,0,0,yes
0,0,0,0,0,no
0.000496,0.001197,0.125,0.333333,0.000775,no
0.00062,0.000435,0,0,0.00062,yes
0.000465,0.000653,0.0625,0,0.00062,no
0.000878,0.001415,0.125,0.333333,0.001084,no
0.001445,0.001741,0.03125,0,0.001549,no
0.00093,0.001523,0,0,0.001549,no
0.001947,0.008923,0.0625,0.666667,0.005887,no
0.002866,0.007291,0.09375,0.333333,0.005887,no
0.002014,0.001523,0.0625,0.333333,0.002943,yes
0,0,0,0,0,yes
0.00031,0.000109,0,0,0.00031,yes
0.001239,0.000435,0,0,0.001239,no
0.001084,0.000544,0,0,0.001239,no
0.00031,0.000109,0,0,0.00031,no
0.00031,0.000109,0,0,0.00031,no
0,0,0,0,0,no
0.00129,0.001632,0.125,0.333333,0.001239,yes
0,0,0,0,0,yes
0.00031,0.000109,0.0625,0,0.00031,no
0.001084,0.000544,0,0,0.001084,no
0.002324,0.002394,0.0625,0.333333,0.003563,no
0,0,0,0,0,no
0.003176,0.004026,0,0,0.005112,no
0.002324,0.004679,0.0625,0.333333,0.005112,yes
0.00031,0.000218,0.03125,0,0.00031,yes
0,0,0,0,0,yes
0.002014,0.001523,0.0625,0.333333,0.002943,yes
0.00031,0.000109,0,0,0.00031,no
0.00031,0.000109,0,0,0.00031,yes
0,0,0,0,0,yes
0,0,0,0,0,yes
0.00062,0.000871,0,0,0.00093,no
0.000775,0.000435,0,0.333333,0.000775,no
0,0,0,0,0,yes
0.003718,0.002612,0,0,0.003718,no
0,0,0,0,0,no
0,0,0,0,0,yes
0,0,0,0,0,yes
0,0,0,0,0,no
0,0,0,0,0,no
0,0,0,0,0,no
0,0,0,0,0,no
0.002479,0.00185,0.03125,0.333333,0.003098,no
0.002401,0.001741,0,0,0.003098,no
0.001627,0.001197,0.03125,0,0.003098,no
0,0,0,0,0,no
0,0,0,0,0,no
0,0,0,0.333333,0,no
0,0,0.03125,0.333333,0,no
0,0,0,0,0,no
0,0,0,0,0,no
0,0,0,0,0,no
0,0,0,0,0,no
0.000155,0.000109,0,0,0.000155,no
0.00031,0.000218,0,0,0.00031,no
0.000232,0.000218,0.03125,0,0.00031,no
0,0,0,0,0,no
0,0,0,0,0,no
0.000775,0.000218,0,0,0.000775,no
0.00031,0.000109,0,0,0.00031,no
0,0,0,0,0,no
0.00031,0.000109,0,0,0.00031,no
0,0,0,0,0,no
0.000155,0.000109,0,0,0.000155,no
0.001394,0.002176,0.03125,0.333333,0.001549,no
0.000852,0.000653,0,0,0.001549,no
0.000361,0.000435,0,0,0.00062,no
0.001704,0.001197,0.03125,0,0.001704,no
0.001704,0.001959,0,0.333333,0.002789,no
0.004149,0.018172,0.25,0.333333,0.009915,no
0.005422,0.007291,0,0,0.006662,no
0.003873,0.016975,0.1875,0.333333,0.009915,no
0.003641,0.009358,0,0,0.006662,no
0.005422,0.007291,0,0,0.006662,no
0.001549,0.000871,0,0,0.001549,no
0.00062,0.000218,0.03125,0,0.00031,no
0.001549,0.001088,0,0,0.001549,no
0.001007,0.001197,0,0,0.001084,no
0.001084,0.000762,0.03125,0,0.001084,no
0.000465,0.000326,0.03125,0.333333,0.000465,no
0.00062,0.000326,0,0,0.00062,no
0.00062,0.000326,0,0,0.00062,no
0.006662,0.003591,0.28125,0.333333,0.003873,no
0,0,0.125,0,0,no
0.000697,0.000762,0,0.333333,0.001084,no
0.001549,0.002612,0.03125,0.333333,0.003408,no
0.003408,0.002067,0,0,0.003408,no
0.003408,0.002067,0,0,0.003408,no
0.003408,0.002067,0,0,0.003408,no
0.003408,0.002067,0,0,0.003408,no
0,0,0,0,0,no
0,0,0,0,0,no
0,0,0,0,0,no
0,0,0,0,0,no
0,0,0,0,0,no
0,0,0,0,0,no
0,0,0,0,0,no
0,0,0,0,0,no
0,0,0,0,0,no
0,0,0.03125,0,0,no
0,0,0,0,0,no
0,0,0.09375,0.333333,0,no
0.002634,0.00185,0,0,0.002634,no
0,0,0,0,0,no
0,0,0,0,0,no
0,0,0,0,0,no
0.001394,0.000979,0,0,0.001394,no
0.001084,0.000762,0,0,0.001084,no
0,0,0,0,0,no
0,0,0,0,0,no
0.001549,0.001088,0,0,0.001549,no
0.004183,0.000218,0.21875,0.333333,0.004028,no
0.007281,0.005114,0.125,0.333333,0.007281,no
0,0,0,0,0,no
0,0,0.03125,0,0,no
0,0,0,0,0,no
0,0,0,0,0,no
0,0,0.1875,0.333333,0,no
0,0,0,0,0,no
0,0,0.125,0.333333,0,no
0,0,0.15625,0.333333,0,no
0,0,0.03125,0,0,no
0,0,0.09375,0,0,no
0,0,0,0,0,no
0,0,0,0,0,no
0,0,0,0,0,no
0,0,0,0,0,no
0,0,0,0,0,no
0,0,0.125,0.333333,0,no
0,0,0.15625,0.333333,0,no
0,0,0.125,0.666667,0,no
0,0,0.125,0.333333,0,no
0,0,0.09375,0.333333,0,no
0,0,0.09375,0.333333,0,no
0,0,0,0,0,no
0,0,0,0,0,no
0,0,0,0,0,no
0,0,0.09375,0.333333,0,no
0,0,0.15625,0.333333,0,no
0,0,0.0625,0.666667,0,no
0,0,0.125,0.666667,0,no
0,0,0.125,0.333333,0,no
0,0,0.09375,0.333333,0,no
0,0,0.09375,0.333333,0,no
0,0,0,0,0,no
0,0,0,0,0,no
0,0,0,0,0,no
0,0,0,0,0,no
0,0,0.0625,0,0,no
0,0,0.09375,0.666667,0,no
0,0,0.125,0.333333,0,no
0,0,0,0,0,no
0,0,0,0.333333,0,no
0,0,0.125,0.666667,0,no
0,0,0.125,0.333333,0,no
0,0,0.09375,0.666667,0,no
0,0,0.09375,0.333333,0,no
0,0,0.0625,0.333333,0,no
0,0,0.15625,0.333333,0,no
0,0,0.15625,0.333333,0,no
0,0,0,0,0,no
0,0,0.15625,0.666667,0,no
0,0,0.125,0.333333,0,no
0,0,0.03125,0.333333,0,no
0,0,0.03125,0,0,no
0,0,0,0.333333,0,no
0,0,0.0625,0,0,no
0,0,0.0625,0.333333,0,no
0.00031,0.000109,0,0.333333,0.00031,no
0.001549,0.000979,0,0,0.001549,no
0.001782,0.002176,0,0.333333,0.002943,no
0.00031,0.000109,0,0.333333,0.00031,no
0.00031,0.000109,0,0.333333,0.00031,no
0.00031,0.000218,0,0,0.00031,no
0.00031,0.000109,0,0,0.00031,no
0,0,0,0,0,no
0,0,0,0.333333,0,no
0,0,0,0,0,no
0,0,0,0,0,no
0,0,0,0.333333,0,no
0,0,0,0,0,no
0,0,0,0,0,no
0,0,0.03125,0,0,no
0,0,0,0,0,no
0.002556,0.003591,0.0625,0.333333,0.004338,no
0.004338,0.003047,0,0,0.004338,no
0.004338,0.003047,0,0,0.004338,no
0.004338,0.003047,0,0,0.004338,no
0,0,0,0,0,no
0,0,0,0,0,no
0,0,0,0,0,no
0,0,0,0,0,no
0.026801,0.018825,0,0,0.026801,no
0,0,0,0,0,no
0,0,0.03125,0.333333,0,no
0,0,0.0625,0.333333,0,no
0.013555,0.018934,0.09375,0.666667,0.026801,no
0.00031,0.000109,0.0625,0.333333,0.00031,no
0,0,0.0625,0,0,no
0.00031,0.000109,0.15625,0.666667,0.00031,no
0.026801,0.018825,0.09375,0.333333,0.026801,no
0,0,0.15625,0.333333,0,no
0,0,0.125,0.333333,0,no
0,0,0,0,0,no
0.026801,0.018825,0,0,0.026801,no
0,0,0,0,0,no
0,0,0,0,0,no
0.001704,0.000871,0,0,0.001704,no
0.001472,0.001306,0.09375,0.666667,0.001704,no
0,0,0.0625,0,0,no
0.000775,0.000871,0,0.333333,0.001239,no
0.003176,0.003373,0.21875,0.666667,0.003253,no
0.026801,0.018825,0.09375,0.333333,0.026801,no
0.003331,0.003591,0.21875,0.666667,0.002943,no
0,0,0.125,0.333333,0,no
0.009656,0.019695,0.125,0.333333,0.026801,no
0.013555,0.018934,0.09375,0.666667,0.026801,no
0.007707,0.020348,0.28125,0.333333,0.026801,no
0.007436,0.020022,0.28125,0.333333,0.026801,no
0.013555,0.018934,0.09375,0.666667,0.026801,no
0.026801,0.018825,0.03125,0,0.026801,no
0.026801,0.018825,0,0,0.026801,no
0.026801,0.018825,0,0,0.026801,no
0.026801,0.018825,0,0,0.026801,no
0.013555,0.018934,0.09375,0.333333,0.026801,no
0.013555,0.018934,0.09375,0.666667,0.026801,no
0.026801,0.018825,0.15625,0.666667,0.026801,no
0.026801,0.018825,0.09375,0.333333,0.026801,no
0,0,0.0625,0.333333,0,no
0,0,0.0625,0,0,no
0,0,0.1875,0.333333,0,no
0,0,0.125,0.333333,0,no
0.002014,0.001415,0.09375,0,0.002014,no
0.000826,0.001197,0.09375,0.333333,0.000465,no
0.000558,0.001415,0.03125,0,0.001084,no
0,0,0,0,0,no
0.001084,0.000762,0.09375,0.333333,0.001084,no
0,0,0.03125,0,0,no
0,0,0.03125,0,0,no
0.001146,0.002067,0.125,0.333333,0.002169,no
0.001456,0.003264,0,0.333333,0.002324,no
0.002541,0.008161,0.0625,0.333333,0.006971,no
0.00213,0.00555,0.1875,0.333333,0.006971,no
0.000697,0.000544,0.09375,0.333333,0.000775,no
0.000387,0.000762,0.15625,0.333333,0.000465,no
0.000155,0.000109,0,0.333333,0.000155,no
0,0,0,0,0,no
0.000775,0.00185,0.09375,0.333333,0.001394,no
0.000891,0.001741,0.0625,0.333333,0.001394,no
0,0,0,0,0,no
0.000775,0.000544,0,0,0.000775,no
0.000775,0.000544,0,0,0.000775,no
0.00062,0.000218,0,0,0.00031,no
0.002324,0.001523,0.21875,0.333333,0.002014,no
0.00093,0.000653,0,0,0.00093,no
0.00031,0.000109,0,0,0.00031,no
0,0,0,0,0,no
0,0,0,0,0,no
0,0,0,0,0,no
0,0,0,0,0,no
0,0,0,0,0,no
0,0,0,0,0,no
0,0,0,0,0,no
0,0,0,0,0,no
0,0,0,0,0,no
0,0,0,0,0,no
0,0,0,0,0,no
0,0,0,0,0,no
0,0,0,0,0,no
0,0,0,0,0,no
0,0,0,0,0,no
0,0,0,0,0,no
0.00031,0.000109,0.03125,0,0.00031,no
0,0,0.03125,0.333333,0,no
0,0,0,0,0,no
0,0,0,0,0,no
0,0,0,0,0,no
0,0,0,0,0,no
0,0,0,0,0,no
0,0,0,0,0,no
0,0,0,0,0,no
0,0,0,0,0,no
0.000775,0.000979,0.1875,0.333333,0.001239,no
0.000465,0.000218,0.09375,0,0.000465,no
0,0,0,0,0,no
0,0,0,0,0,no
0,0,0,0,0,no
0,0,0,0,0,no
0,0,0,0,0,no
0,0,0,0,0,no
0,0,0,0,0,no
0,0,0,0,0,no
0,0,0,0,0,no
0.000387,0.000326,0,0,0.00031,no
0.00062,0.000109,0.03125,0.333333,0.00062,no
0,0,0.03125,0,0,no
0.00062,0.000109,0.0625,0,0.00062,no
0.00062,0.000109,0.03125,0,0.00062,no
0.00031,0.000109,0,0,0.00031,no
0.00062,0.000109,0,0,0.00062,no
0.00031,0.000109,0.0625,0.333333,0.00031,no
0.00031,0.000109,0,0,0.00031,no
0.000465,0.000326,0,0,0.00062,no
0.00062,0.000435,0,0,0.00062,no
0.001317,0.002067,0,0.333333,0.004648,no
0.00222,0.002829,0,0,0.004648,no
0.00062,0.000218,0,0,0.00062,no
0.00031,0.000109,0,0,0.00031,no
0,0,0.03125,0,0,no
0.00306,0.014908,0.34375,0.666667,0.015027,no
0.005216,0.009902,0.1875,0.333333,0.01007,no
0.005061,0.009684,0.125,0.333333,0.01007,no
0.006558,0.012187,0.0625,0.333333,0.015027,no
0.006713,0.012405,0,0,0.015027,no
0.006765,0.012731,0,0,0.015027,no
0.00457,0.012078,0,0,0.015027,no
0.00661,0.012296,0,0,0.015027,no
0.00093,0.000435,0.03125,0,0.000775,no
0,0,0,0,0,no
0,0,0,0,0,no
0.003563,0.000218,0,0,0.003563,no
0,0,0.03125,0,0,no
0.003501,0.011643,0.09375,0.333333,0.008366,no
0.00031,0.000109,0.03125,0,0.00031,no
0,0,0,0,0,no
0.003253,0.011208,0.03125,0.333333,0.008366,no
0.00031,0.000109,0.03125,0,0.00031,no
0,0,0,0,0,no
0,0,0,0,0,no
0.011309,0.000109,0.03125,0,0.011309,no
0.009915,0.013819,0.03125,0,0.01952,no
0.01952,0.013711,0.03125,0,0.01952,no
0.011464,0.014908,0,0,0.01952,no
0.011568,0.017193,0.09375,0.333333,0.01952,no
0,0,0,0,0,no
0.00031,0.000109,0.03125,0,0.00031,no
0.010844,0.014472,0,0,0.01952,no
0,0,0.03125,0,0,no
0.005836,0.01926,0.375,0.666667,0.01952,no
0.000414,0.000871,0.15625,0.333333,0.00031,no
0,0,0,0,0,no
0.00031,0.000109,0.03125,0,0.00031,no
0.004028,0.001523,0,0,0.004028,no
0.004028,0.001523,0,0,0.004028,no
0.004028,0.001523,0,0,0.004028,no
0,0,0,0,0,no
0.00093,0.000435,0.03125,0,0.000775,no
0.007591,0.010337,0.03125,0,0.013013,no
0,0,0,0,0,no
0.007746,0.009793,0.0625,0,0.013013,no
0.008727,0.015343,0.1875,0.333333,0.013013,no
0.005216,0.009902,0.1875,0.333333,0.01007,no
0.007901,0.015778,0.1875,0.333333,0.01007,no
0.005216,0.009902,0.1875,0.333333,0.01007,no
0.005216,0.009902,0.1875,0.333333,0.01007,no
0.005061,0.009684,0.125,0.333333,0.01007,no
0.000697,0.000544,0.125,0.666667,0.00093,no
0.000542,0.000435,0.125,0.333333,0.00093,no
0,0,0,0,0,no
0,0,0,0,0,no
0,0,0,0,0,no
0,0,0,0,0,no
0.00093,0.000435,0.03125,0,0.000775,no
0.000775,0.000218,0.0625,0.333333,0.000465,no
0.00031,0.000109,0.0625,0.333333,0.00031,no
0,0,0,0,0,no
0,0,0,0,0,no
0,0,0,0,0,no
0,0,0.03125,0,0,no
0,0,0,0,0,no
0,0,0,0,0,no
0,0,0.03125,0,0,no
0,0,0,0,0,no
0,0,0,0,0,no
0,0,0.03125,0,0,no
0,0,0,0,0,no
0,0,0,0,0,no
0,0,0,0,0,no
0,0,0.03125,0,0,no
0,0,0.21875,0,0,no
0.00031,0.000109,0,0,0.00031,no
0,0,0,0,0,no
0,0,0,0,0,no
0,0,0.03125,0,0,no
0.00093,0.000653,0.0625,0,0.00093,no
0.00062,0.000435,0,0,0.00062,no
0,0,0.03125,0,0,no
0,0,0,0,0,no
0.001084,0.000435,0.03125,0,0.001084,no
0,0,0,0,0,no
0,0,0,0,0,no
0.001859,0.001306,0.03125,0,0.001859,no
0.001859,0.001306,0.03125,0,0.001859,no
0,0,0,0,0,no
0.00031,0.000109,0.09375,0,0.00031,no
0.000775,0.000544,0,0,0.000775,no
0.00062,0.000218,0.0625,0,0.00031,no
0,0,0.0625,0.333333,0,no
0,0,0,0,0,no
0.000465,0.000326,0.1875,0.333333,0.00031,no
0.001084,0.001197,0.09375,0,0.001239,no
0,0,0,0,0,no
0.00031,0.000109,0,0,0.00031,no
0.00093,0.000544,0,0,0.00093,no
0.00093,0.000544,0,0,0.00093,no
0.001239,0.002394,0.40625,1,0.001859,no
0,0,0,0,0,no
0.001162,0.001415,0.1875,0.333333,0.001239,no
0,0,0,0,0,no
0,0,0,0,0,no
0,0,0,0,0,no
0,0,0.125,0,0,no
0,0,0,0,0,no
0,0,0.03125,0,0,no
0,0,0,0,0,no
0,0,0.09375,0,0,no
0.00031,0.000109,0,0,0.00031,no
0,0,0,0,0,no
0,0,0,0,0,no
0.00031,0.000109,0,0,0.00031,no
0,0,0,0,0,no
0,0,0,0,0,no
0,0,0,0,0,no
0,0,0,0,0,no
0,0,0,0,0,no
0,0,0,0,0,no
0,0,0,0,0,no
0.000465,0.000326,0,0,0.000465,no
0.000465,0.000326,0,0,0.000465,no
0.000465,0.000326,0,0,0.000465,no
0.000775,0.000544,0,0,0.000775,no
0,0,0,0,0,no
0.00031,0.000109,0,0.333333,0.00031,no
0,0,0,0,0,no
0,0,0,0,0,no
0,0,0,0,0,no
0,0,0,0,0,no
0,0,0,0,0,no
0,0,0,0,0,no
0,0,0.0625,0.333333,0,yes
0.001627,0.002176,0,0,0.002479,no
0.001472,0.001632,0,0,0.002634,no
0.001472,0.001632,0,0,0.002634,no
0,0,0,0,0,no
0.00031,0.000109,0,0,0.00031,yes
0,0,0,0,0,yes
0.000465,0.000326,0,0,0.00031,yes
0.001394,0.00185,0,0,0.002479,yes
0.001653,0.003264,0,0,0.002479,yes
0.000878,0.001741,0.0625,0,0.001859,no
0.000155,0.000109,0,0,0.000155,no
0.00031,0.000109,0,0,0.00031,yes
0.00031,0.000109,0,0,0.00031,yes
0,0,0,0,0,yes
0.00031,0.000109,0,0,0.00031,yes
0,0,0,0,0,yes
0,0,0,0,0,yes
0.001084,0.000653,0.03125,0,0.001084,yes
0.00062,0.000109,0.03125,0.333333,0.00062,no
0.000697,0.000653,0.125,0.333333,0.000775,no
0,0,0,0,0,no
0.000516,0.000544,0.0625,0.333333,0.00031,yes
0,0,0,0,0,yes
0.000516,0.000435,0.03125,0,0.000775,yes
0.00031,0.000109,0.03125,0,0.00031,no
0,0,0,0,0,yes
0,0,0,0,0,yes
0.003563,0.00555,0.0625,0.333333,0.002634,yes
0.004287,0.005005,0.125,0.333333,0.003873,no
0.004648,0.004135,0.125,0,0.004183,no
0.001653,0.003156,0.03125,0,0.004028,no
0.001084,0.000218,0,0,0.001084,no
0,0,0.0625,0.333333,0,yes
0,0,0,0,0,no
0,0,0,0,0,no
0.005422,0.003808,0,0,0.005422,no
0,0,0.0625,0.333333,0,yes
0.005422,0.003808,0.0625,0,0.005422,no
0.004338,0.006094,0,0,0.005422,no
0.001782,0.002394,0,0,0.003253,no
0,0,0.0625,0.333333,0,yes
0,0,0,0,0,no
0,0,0.0625,0.333333,0,yes
0.000155,0.000109,0,0,0.000155,no
0,0,0.0625,0.333333,0,yes
0,0,0.03125,0,0,no
0,0,0.0625,0,0,no
0,0,0,0,0,no
0,0,0,0,0,no
0,0,0,0,0,no
0,0,0,0,0,no
0.00031,0.000109,0,0,0.00031,no
0,0,0,0,0,no
0.00031,0.000109,0,0,0.00031,no
0,0,0,0,0,no
0,0,0,0,0,no
0,0,0,0,0,no
0,0,0,0,0,no
0,0,0,0,0,no
0,0,0,0,0,no
0,0,0,0,0,no
0,0,0,0,0,no
0,0,0,0,0,no
0,0,0,0,0,no
0.002634,0.00185,0.03125,0,0.002634,no
0.002634,0.00185,0,0,0.002634,no
0,0,0,0,0,no
0,0,0,0,0,no
0,0,0,0,0,no
0,0,0,0,0,no
0,0,0,0,0,no
0,0,0,0,0,no
0,0,0,0,0,no
0,0,0,0,0,no
0,0,0.03125,0,0,no
0.00031,0.000109,0.09375,0.333333,0.00031,no
0.001549,0.000979,0,0,0.001549,no
0.001549,0.000979,0,0,0.001549,no
0.00093,0.001088,0.0625,0,0.001549,no
0.00031,0.000109,0.0625,0,0.00031,no
0,0,0,0,0,no
0.000465,0.000218,0,0,0.00031,no
0,0,0,0,0,no
0.000542,0.000653,0,0,0.000775,no
0.000775,0.000544,0,0,0.000775,no
0,0,0,0,0,no
0.000775,0.000544,0,0,0.000775,no
0.000465,0.000218,0,0,0.000465,no
0.000465,0.000653,0,0,0.000775,no
0,0,0,0,0,no
0.00062,0.000435,0,0,0.00062,no
0,0,0,0,0,no
0.00031,0.000109,0.125,0.333333,0.00031,no
0,0,0,0,0,no
0,0,0.03125,0.333333,0,no
0,0,0,0,0,no
0,0,0,0,0,no
0.00062,0.000218,0,0,0.00062,no
0,0,0,0,0,no
0,0,0,0,0,no
0,0,0.0625,0,0,no
0,0,0,0,0,no
0,0,0.03125,0.333333,0,no
0,0,0,0,0,no
0,0,0,0,0,no
0,0,0,0,0,no
0.000891,0.001415,0.15625,0.333333,0.00062,no
0.00062,0.000435,0.03125,0.666667,0.00062,no
0,0,0.03125,0,0,no
0,0,0,0,0,no
0.00031,0.000109,0.09375,0.333333,0.00031,no
0,0,0,0,0,no
0,0,0,0,0,no
0.00031,0.000109,0.0625,0.333333,0.00031,no
0,0,0,0,0,no
0,0,0.03125,0,0,no
0,0,0,0,0,no
0,0,0.03125,0.333333,0,no
0,0,0,0,0,no
0,0,0,0,0,no
0,0,0,0,0,no
0,0,0,0,0,no
0.000465,0.000435,0,0,0.000465,no
0.002169,0.001197,0.03125,0.333333,0.001549,no
0,0,0,0,0,no
0.00031,0.000109,0,0,0.00031,no
0,0,0,0,0,no
0.000387,0.000326,0,0,0.000465,no
0.001394,0.001741,0,0.333333,0.002479,no
0.001394,0.001741,0,0,0.002479,no
0.002479,0.001632,0,0.333333,0.002479,no
0,0,0,0,0,no
0,0,0,0,0,no
0.001704,0.002067,0.09375,0.333333,0.002789,no
0.00031,0.000109,0.03125,0,0.00031,no
0.00031,0.000109,0.03125,0,0.00031,no
0.004287,0.008487,0,0,0.011774,no
0.004132,0.008487,0.03125,0.333333,0.011774,no
0.01038,0.014472,0.0625,0,0.020449,no
0.004957,0.016104,0.40625,1,0.020449,no
0.00031,0.000109,0.03125,0,0.00031,no
0.00723,0.014799,0.09375,0.666667,0.020449,no
0.007022,0.014581,0.03125,0,0.020449,no
0.00031,0.000109,0.03125,0,0.00031,no
0.00031,0.000109,0.03125,0,0.00031,no
0.01038,0.014472,0.0625,0,0.020449,no
0.001704,0.002067,0.09375,0.333333,0.002789,no
0.005422,0.000653,0.0625,0.333333,0.00945,no
0.001704,0.002067,0.09375,0.333333,0.002789,no
0.002401,0.002612,0.15625,0.333333,0.002789,no
0.00031,0.000109,0.03125,0,0.00031,no
0.00031,0.000109,0.03125,0,0.00031,no
0.001704,0.002067,0.09375,0.333333,0.002789,no
0.000155,0.000109,0,0,0.000155,no
0,0,0.03125,0,0,no
0,0,0,0,0,no
0.00031,0.000109,0,0,0.00031,no
0.000465,0.000218,0,0,0.000465,no
0.000155,0.000109,0.03125,0.333333,0.000155,no
0.001472,0.001632,0.09375,0.333333,0.002169,no
0,0,0,0,0,no
0.001472,0.001632,0.09375,0.333333,0.002169,no
0.00031,0.000109,0,0,0.00031,no
0.000414,0.000544,0.03125,0.333333,0.00062,no
0.00031,0.000109,0,0,0.00031,no
0,0,0,0,0,no
0.000852,0.000653,0,0,0.001394,no
0.003512,0.006855,0,0,0.00945,no
0.00945,0.006638,0,0,0.00945,no
0.001472,0.001632,0.09375,0.333333,0.002169,no
0,0,0,0,0,no
0.00031,0.000109,0,0,0.00031,no
0.00031,0.000109,0,0,0.00031,no
0.002169,0.003373,0.0625,0,0.004183,no
0.002246,0.002938,0,0,0.004183,no
0.002246,0.002938,0,0,0.004183,no
0.002479,0.003264,0,0,0.004183,no
0.001755,0.003373,0,0,0.004183,no
0,0,0,0.333333,0,no
0.001472,0.001632,0.09375,0.333333,0.002169,no
0.00031,0.000109,0,0,0.00031,no
0,0,0,0,0,no
0.00031,0.000109,0,0,0.00031,no
0.004338,0.003047,0,0,0.004338,no
0.00031,0.000109,0,0,0.00031,no
0,0,0,0,0,no
0.00031,0.000109,0,0,0.00031,no
0.00031,0.000109,0,0,0.00031,no
0,0,0,0,0,no
0.001704,0.001197,0.03125,0,0.001704,no
0.00031,0.000109,0.09375,0,0.00031,no
0,0,0,0.333333,0,no
0.001782,0.002394,0,0.333333,0.003253,no
0.001472,0.001632,0.09375,0.333333,0.002169,no
0,0,0,0,0,no
0.00031,0.000109,0,0,0.00031,no
0.003408,0.002394,0,0.333333,0.003408,no
0.003408,0.002394,0,0,0.003408,no
0.001472,0.001632,0.09375,0.333333,0.002169,no
0.00062,0.000218,0,0,0.00062,no
0,0,0,0,0,no
0.001472,0.001632,0.09375,0.333333,0.002169,no
0.00031,0.000109,0,0,0.00031,no
0,0,0,0,0,no
0.003098,0.002067,0,0,0.003098,no
0.003098,0.002067,0,0,0.003098,no
0.00457,0.005876,0.03125,0.333333,0.004338,no
0,0,0,0,0,no
0.00031,0.000109,0,0,0.00031,no
0.010225,0.006638,0.0625,0.666667,0.004338,no
0.004338,0.003047,0,0,0.004338,no
0.00031,0.000109,0,0,0.00031,no
0.004338,0.003047,0,0,0.004338,no
0.00031,0.000109,0,0,0.00031,no
0.005887,0.003591,0.0625,0.666667,0.004338,no
0.004338,0.003047,0,0,0.004338,no
0.00031,0.000109,0,0,0.00031,no
0.004338,0.003047,0,0,0.004338,no
0.00031,0.000109,0,0,0.00031,no
0,0,0,0,0,no
0,0,0,0.333333,0,no
0,0,0,0.333333,0,no
0,0,0,0.333333,0,no
0,0,0,0.333333,0,no
0.001007,0.001088,0.03125,0,0.001704,no
0.002014,0.001415,0,0,0.002014,no
0.001317,0.001632,0,0,0.002014,no
0.001239,0.000762,0.03125,0,0.001239,no
0.00031,0.000109,0,0.333333,0.00031,no
0.000414,0.000435,0,0.333333,0.00062,no
0.000878,0.001523,0,0.333333,0.002014,no
0.002014,0.001306,0,0,0.002014,no
0.00031,0.000218,0,0.333333,0.00031,no
0.000465,0.000544,0,0.333333,0.00062,no
0.00093,0.001088,0.0625,0,0.00093,no
0.000775,0.000218,0.03125,0,0.000775,no
0.001704,0.002285,0.0625,0,0.002169,no
0.001146,0.002938,0.03125,0,0.002169,no
0.001859,0.003591,0,0,0.003408,no
0.002014,0.002829,0,0,0.003408,no
0.002014,0.002829,0,0,0.003408,no
0.003408,0.002394,0,0,0.003408,no
0.002324,0.003264,0,0,0.003408,no
0.001239,0.000871,0,0,0.001239,no
0.001239,0.000871,0,0,0.001239,no
0,0,0.0625,0,0,no
0.007281,0.005114,0.03125,0,0.007281,no
0.003202,0.006746,0,0,0.007281,no
0.003202,0.006746,0,0,0.007281,no
0.003357,0.006529,0.375,0.666667,0.007281,no
0.00062,0.000218,0,0.333333,0.00031,no
0.002246,0.002285,0,0,0.002324,no
0.003098,0.004026,0,0,0.003408,no
0.001704,0.001959,0,0,0.002324,no
0.003563,0.004353,0.03125,0.333333,0.003408,no
0.003563,0.004353,0.03125,0,0.003408,no
0.003098,0.004026,0,0,0.003408,no
0.003098,0.004026,0,0,0.003408,no
0.00031,0.000109,0,0.333333,0.00031,no
0.00093,0.000326,0,0.333333,0.00093,no
0.00093,0.000326,0,0.333333,0.00093,no
0.00062,0.000218,0,0.333333,0.00031,no
0,0,0.03125,0,0,no
0,0,0,0,0,no
0,0,0,0,0,no
0.00031,0.000218,0,0.333333,0.00031,no
0,0,0,0.333333,0,no
0.002324,0.001632,0,0,0.002324,no
0,0,0,0,0,no
0,0,0,0,0,no
0,0,0,0,0,no
0.00062,0.000218,0,0,0.00062,no
0.000542,0.000544,0.03125,0.333333,0.000775,no
0,0,0,0,0,no
0.000542,0.000544,0.03125,0.333333,0.000775,no
0,0,0,0,0,no
0,0,0,0,0,no
0.001239,0.001959,0.0625,0.333333,0.002014,yes
0.002014,0.001197,0,0,0.002014,yes
0.000542,0.000544,0.03125,0.333333,0.000775,no
0.002014,0.001197,0,0,0.002014,yes
0.002014,0.001197,0,0,0.002014,yes
0.002014,0.001197,0,0,0.002014,yes
0.002014,0.001197,0,0,0.002014,yes
0.002014,0.001197,0,0,0.002014,yes
0,0,0,0,0,no
0,0,0,0,0,no
0.00031,0.000109,0,0,0.00031,no
0,0,0,0,0,no
0.00062,0.000435,0,0,0.00062,no
0.00062,0.000435,0,0,0.00062,no
0,0,0,0,0,no
0,0,0,0,0,no
0,0,0,0,0,no
0,0,0,0,0,no
0,0,0,0,0,no
0,0,0,0,0,no
0,0,0.03125,0,0,no
0,0,0,0,0,no
0,0,0.15625,0.333333,0,no
0,0,0,0,0,no
0,0,0.15625,0.333333,0,no
0,0,0,0,0,no
0,0,0,0,0,no
0,0,0,0,0,no
0,0,0,0,0,no
0,0,0,0,0,no
0,0,0,0,0,no
0,0,0,0,0,no
0,0,0.03125,0,0,no
0,0,0.0625,0,0,no
0,0,0,0,0,no
0,0,0.125,0.333333,0,no
0,0,0,0,0,no
0,0,0,0,0,no
0,0,0,0,0,no
0,0,0,0,0,no
0,0,0,0,0,no
0,0,0,0,0,no
0,0,0,0,0,no
0,0,0,0,0,no
0,0,0,0,0,yes
0,0,0.03125,0.333333,0,no
0,0,0,0,0,no
0,0,0,0,0,no
0,0,0,0,0,no
0,0,0.03125,0,0,no
0,0,0,0,0,no
0,0,0.0625,0,0,no
0,0,0,0,0,no
0.00031,0.000109,0.15625,0.333333,0.00031,no
0,0,0.125,0.333333,0,no
0,0,0.03125,0,0,no
0,0,0,0,0,no
0,0,0,0,0,no
0,0,0.03125,0.333333,0,no
0,0,0,0,0,no
0,0,0,0,0,no
0,0,0,0,0,no
0,0,0.03125,0,0,no
0,0,0.03125,0,0,no
0,0,0,0,0,no
0,0,0.03125,0.333333,0,no
0,0,0,0,0,no
0,0,0,0,0,no
0,0,0.125,0.333333,0,yes
0,0,0.125,0.333333,0,no
0,0,0,0,0,no
0,0,0,0,0,no
0,0,0,0,0,no
0,0,0.03125,0,0,no
0.00062,0.000218,0,0,0.00062,no
0,0,0,0,0,no
0,0,0,0,0,no
0.000775,0.000544,0,0,0.000775,no
0,0,0,0,0,no
0,0,0,0,0,no
0,0,0,0,0,no
0.00062,0.000218,0.03125,0,0.00062,no
0,0,0,0,0,no
0.000775,0.000544,0,0,0.000775,no
0,0,0.09375,0,0,yes
0,0,0.25,0.333333,0,yes
0,0,0,0,0,no
0,0,0,0,0,no
0,0,0,0,0,no
0,0,0.125,0.333333,0,yes
0,0,0.125,0.333333,0,yes
0,0,0.09375,0,0,yes
0,0,0.03125,0,0,no
0,0,0.0625,0,0,no
0.00062,0.000109,0,0,0.00062,no
0,0,0.09375,0,0,no
0,0,0.09375,0,0,yes
0,0,0.03125,0,0,no
0,0,0.03125,0,0,yes
0.00062,0.000109,0.1875,0.333333,0.00062,yes
0.00062,0.000109,0.1875,0.666667,0.00062,yes
0.006146,0.003917,0.03125,0.333333,0.006971,no
0.004338,0.001197,0,0,0.004338,no
0.004338,0.001197,0,0,0.004338,no
0.004338,0.001197,0,0,0.004338,no
0.004105,0.002285,0.03125,0,0.004338,no
0.000671,0.001197,0,0,0.001084,no
0,0,0,0,0,no
0.002943,0.001959,0.0625,0,0.002634,no
0.003563,0.002176,0,0,0.002634,no
0.003253,0.002938,0.03125,0,0.004338,no
0.004105,0.002285,0.03125,0,0.004338,no
0.000671,0.001197,0,0,0.001084,no
0.00031,0.000109,0.03125,0,0.00031,no
0.001549,0.001415,0.1875,0.333333,0.002014,no
0.001782,0.001741,0.15625,0.666667,0.002943,no
0,0,0.03125,0,0,no
0.000775,0.000544,0.125,0.333333,0.00062,no
0.00031,0.000218,0.09375,0,0.00031,no
0.001936,0.00185,0.15625,0.333333,0.002943,yes
0.001782,0.001741,0.15625,0.666667,0.002943,no
0,0,0.03125,0,0,no
0.00093,0.000218,0.03125,0,0.00093,no
0.00062,0.000218,0.03125,0,0.00031,no
0,0,0,0,0,no
0.00093,0.000326,0.03125,0,0.00062,no
0,0,0,0,0,no
0.00093,0.000326,0.03125,0,0.00031,no
0,0,0,0,0,no
0.00093,0.000326,0.03125,0,0.00031,no
0,0,0,0,0,no
0.00062,0.000218,0.03125,0,0.00031,no
0,0,0,0,0,no
0,0,0,0,0,no
0,0,0,0,0,no
0,0,0.03125,0,0,no
0,0,0,0,0,no
0,0,0.03125,0.333333,0,no
0,0,0,0.333333,0,no
0,0,0.03125,0.333333,0,no
0,0,0,0.333333,0,no
0,0,0.03125,0,0,no
0,0,0,0,0,no
0,0,0.03125,0,0,no
0,0,0,0,0,no
0,0,0.03125,0,0,no
0,0,0,0,0,no
0.00488,0.005441,0.0625,0.666667,0.005732,no
0,0,0.03125,0,0,no
0,0,0.0625,0.666667,0,no
0,0,0.03125,0,0,no
0,0,0.03125,0,0,no
0,0,0,0,0,no
